********************************************************************************
Field Output Report, written Tue Mar 06 14:02:10 2018

Source 1
---------

   ODB: C:/Users/Wagner/Desktop/Projeto FEM/FEM-matlab/Benchmarks/Vaso de Pressao/Job-1.odb
   Step: Step-1
   Frame: Increment      1: Step Time =    1.000

Loc 1 : Integration point values from source 1

Output sorted by column "Element Label".

Field Output reported at integration points for part: PART-1-1

         Element             Int           S.S11
           Label              Pt          @Loc 1
-------------------------------------------------
               1               1        -2.09279
               1               2        -1.67925
               1               3        -1.26267
               2               1        -1.28955
               2               2        -1.21430
               2               3        -1.45284
               3               1        -1.37252
               3               2        -1.23003
               3               3        -1.16957
               4               1        -1.18590
               4               2        -1.26067
               4               3        -1.33939
               5               1        -1.09219
               5               2        -1.00227
               5               3    -987.611E-03
               6               1        -1.00435
               6               2        -1.08544
               6               3        -1.11482
               7               1    -900.830E-03
               7               2    -826.431E-03
               7               3    -819.665E-03
               8               1    -838.222E-03
               8               2    -911.479E-03
               8               3    -925.722E-03
               9               1    -738.099E-03
               9               2    -671.375E-03
               9               3    -666.945E-03
              10               1    -686.148E-03
              10               2    -753.102E-03
              10               3    -761.048E-03
              11               1    -590.404E-03
              11               2    -528.551E-03
              11               3    -525.171E-03
              12               1    -544.333E-03
              12               2    -606.728E-03
              12               3    -611.666E-03
              13               1    -452.564E-03
              13               2    -394.135E-03
              13               3    -391.346E-03
              14               1    -410.236E-03
              14               2    -469.251E-03
              14               3    -472.567E-03
              15               1    -321.781E-03
              15               2    -265.874E-03
              15               3    -263.501E-03
              16               1    -282.092E-03
              16               2    -338.529E-03
              16               3    -340.846E-03
              17               1    -196.206E-03
              17               2    -142.151E-03
              17               3    -140.494E-03
              18               1    -158.761E-03
              18               2    -213.101E-03
              18               3    -214.651E-03
              19               1    -73.9830E-03
              19               2    -21.0799E-03
              19               3    -23.2852E-03
              20               1    -39.9704E-03
              20               2    -92.1849E-03
              20               3    -93.0442E-03
              21               1        -1.22717
              21               2        -1.19029
              21               3        -1.16612
              22               1        -1.18028
              22               2        -1.24118
              22               3        -1.24527
              23               1        -1.17524
              23               2        -1.12084
              23               3        -1.06269
              24               1        -1.07414
              24               2        -1.11809
              24               3        -1.14799
              25               1        -1.03717
              25               2    -966.646E-03
              25               3    -935.812E-03
              26               1    -949.607E-03
              26               2        -1.00787
              26               3        -1.03596
              27               1    -878.595E-03
              27               2    -810.452E-03
              27               3    -794.455E-03
              28               1    -810.250E-03
              28               2    -872.989E-03
              28               3    -891.390E-03
              29               1    -727.294E-03
              29               2    -663.067E-03
              29               3    -653.850E-03
              30               1    -670.893E-03
              30               2    -732.744E-03
              30               3    -744.476E-03
              31               1    -584.735E-03
              31               2    -523.974E-03
              31               3    -518.190E-03
              32               1    -535.834E-03
              32               2    -595.457E-03
              32               3    -603.064E-03
              33               1    -449.584E-03
              33               2    -391.659E-03
              33               3    -387.835E-03
              34               1    -405.683E-03
              34               2    -463.028E-03
              34               3    -468.060E-03
              35               1    -320.423E-03
              35               2    -264.798E-03
              35               3    -262.232E-03
              36               1    -280.049E-03
              36               2    -335.374E-03
              36               3    -338.748E-03
              37               1    -196.157E-03
              37               2    -142.501E-03
              37               3    -140.804E-03
              38               1    -158.388E-03
              38               2    -211.964E-03
              38               3    -214.263E-03
              39               1    -76.3294E-03
              39               2    -24.4886E-03
              39               3    -22.8855E-03
              40               1    -40.1945E-03
              40               2    -92.2586E-03
              40               3    -94.0067E-03
              41               1        -1.22040
              41               2        -1.15756
              41               3        -1.15372
              42               1        -1.17460
              42               2        -1.24094
              42               3        -1.24340
              43               1        -1.09236
              43               2        -1.04091
              43               3        -1.02331
              44               1        -1.03893
              44               2        -1.09623
              44               3        -1.10513
              45               1    -973.766E-03
              45               2    -917.405E-03
              45               3    -897.475E-03
              46               1    -912.189E-03
              46               2    -967.909E-03
              46               3    -982.346E-03
              47               1    -842.816E-03
              47               2    -783.039E-03
              47               3    -767.993E-03
              48               1    -783.531E-03
              48               2    -840.823E-03
              48               3    -854.473E-03
              49               1    -707.096E-03
              49               2    -647.575E-03
              49               3    -637.351E-03
              50               1    -653.795E-03
              50               2    -711.351E-03
              50               3    -721.814E-03
              51               1    -573.213E-03
              51               2    -515.245E-03
              51               3    -508.453E-03
              52               1    -525.526E-03
              52               2    -582.226E-03
              52               3    -589.637E-03
              53               1    -443.187E-03
              53               2    -387.015E-03
              53               3    -382.512E-03
              54               1    -399.914E-03
              54               2    -455.331E-03
              54               3    -460.420E-03
              55               1    -317.240E-03
              55               2    -262.767E-03
              55               3    -259.769E-03
              56               1    -277.260E-03
              56               2    -331.326E-03
              56               3    -334.800E-03
              57               1    -195.069E-03
              57               2    -142.103E-03
              57               3    -140.032E-03
              58               1    -157.453E-03
              58               2    -210.268E-03
              58               3    -212.686E-03
              59               1    -76.2213E-03
              59               2    -24.4976E-03
              59               3    -22.8173E-03
              60               1    -40.1271E-03
              60               2    -91.8937E-03
              60               3    -93.6926E-03
              61               1        -1.22027
              61               2        -1.15390
              61               3        -1.15127
              62               1        -1.17340
              62               2        -1.24084
              62               3        -1.24337
              63               1        -1.07581
              63               2        -1.01649
              63               3        -1.00974
              64               1        -1.02856
              64               2        -1.09113
              64               3        -1.09590
              65               1    -944.224E-03
              65               2    -887.926E-03
              65               3    -877.655E-03
              66               1    -894.483E-03
              66               2    -952.634E-03
              66               3    -960.307E-03
              67               1    -816.379E-03
              67               2    -760.083E-03
              67               3    -749.964E-03
              68               1    -766.454E-03
              68               2    -822.598E-03
              68               3    -831.040E-03
              69               1    -688.461E-03
              69               2    -632.284E-03
              69               3    -624.220E-03
              70               1    -641.061E-03
              70               2    -696.335E-03
              70               3    -703.583E-03
              71               1    -561.372E-03
              71               2    -505.896E-03
              71               3    -500.070E-03
              72               1    -517.306E-03
              72               2    -571.914E-03
              72               3    -577.390E-03
              73               1    -436.255E-03
              73               2    -381.792E-03
              73               3    -377.739E-03
              74               1    -395.191E-03
              74               2    -449.055E-03
              74               3    -452.991E-03
              75               1    -313.630E-03
              75               2    -260.275E-03
              75               3    -257.453E-03
              76               1    -274.930E-03
              76               2    -327.950E-03
              76               3    -330.789E-03
              77               1    -193.597E-03
              77               2    -141.293E-03
              77               3    -139.244E-03
              78               1    -156.636E-03
              78               2    -208.795E-03
              78               3    -210.928E-03
              79               1    -75.9450E-03
              79               2    -24.4615E-03
              79               3    -22.7372E-03
              80               1    -40.0894E-03
              80               2    -91.5506E-03
              80               3    -93.2646E-03
              81               1        -1.22015
              81               2        -1.15281
              81               3        -1.15014
              82               1        -1.17260
              82               2        -1.24078
              82               3        -1.24333
              83               1        -1.07086
              83               2        -1.00816
              83               3        -1.00407
              84               1        -1.02407
              84               2        -1.08869
              84               3        -1.09272
              85               1    -932.122E-03
              85               2    -874.035E-03
              85               3    -868.439E-03
              86               1    -886.749E-03
              86               2    -946.206E-03
              86               3    -951.123E-03
              87               1    -802.066E-03
              87               2    -746.491E-03
              87               3    -740.766E-03
              88               1    -758.603E-03
              88               2    -814.461E-03
              88               3    -819.035E-03
              89               1    -676.553E-03
              89               2    -622.061E-03
              89               3    -617.266E-03
              90               1    -635.196E-03
              90               2    -689.373E-03
              90               3    -692.939E-03
              91               1    -553.212E-03
              91               2    -499.326E-03
              91               3    -495.696E-03
              92               1    -513.739E-03
              92               2    -567.239E-03
              92               3    -569.835E-03
              93               1    -431.364E-03
              93               2    -378.067E-03
              93               3    -375.370E-03
              94               1    -393.353E-03
              94               2    -446.419E-03
              94               3    -448.385E-03
              95               1    -311.068E-03
              95               2    -258.470E-03
              95               3    -256.369E-03
              96               1    -274.138E-03
              96               2    -326.676E-03
              96               3    -328.348E-03
              97               1    -192.531E-03
              97               2    -140.672E-03
              97               3    -138.887E-03
              98               1    -156.401E-03
              98               2    -208.286E-03
              98               3    -209.877E-03
              99               1    -75.7415E-03
              99               2    -24.4193E-03
              99               3    -22.6906E-03
             100               1    -40.1205E-03
             100               2    -91.4387E-03
             100               3    -93.0152E-03
             101               1        -1.21985
             101               2        -1.15178
             101               3        -1.14888
             102               1        -1.17139
             102               2        -1.24064
             102               3        -1.24329
             103               1        -1.06819
             103               2        -1.00437
             103               3        -1.00100
             104               1        -1.02115
             104               2        -1.08629
             104               3        -1.09064
             105               1    -927.069E-03
             105               2    -868.614E-03
             105               3    -865.803E-03
             106               1    -885.258E-03
             106               2    -943.967E-03
             106               3    -946.885E-03
             107               1    -796.690E-03
             107               2    -741.610E-03
             107               3    -739.826E-03
             108               1    -759.471E-03
             108               2    -814.358E-03
             108               3    -814.846E-03
             109               1    -672.534E-03
             109               2    -618.821E-03
             109               3    -617.797E-03
             110               1    -637.510E-03
             110               2    -691.104E-03
             110               3    -690.260E-03
             111               1    -550.915E-03
             111               2    -497.649E-03
             111               3    -496.931E-03
             112               1    -516.375E-03
             112               2    -569.734E-03
             112               3    -568.750E-03
             113               1    -430.350E-03
             113               2    -377.392E-03
             113               3    -376.621E-03
             114               1    -395.563E-03
             114               2    -448.792E-03
             114               3    -448.312E-03
             115               1    -310.738E-03
             115               2    -258.252E-03
             115               3    -257.223E-03
             116               1    -275.563E-03
             116               2    -328.411E-03
             116               3    -328.652E-03
             117               1    -192.447E-03
             117               2    -140.592E-03
             117               3    -139.227E-03
             118               1    -157.014E-03
             118               2    -209.201E-03
             118               3    -210.140E-03
             119               1    -75.7144E-03
             119               2    -24.3832E-03
             119               3    -22.7086E-03
             120               1    -40.2270E-03
             120               2    -91.6719E-03
             120               3    -93.0988E-03
             121               1        -1.21909
             121               2        -1.15010
             121               3        -1.14655
             122               1        -1.16852
             122               2        -1.23992
             122               3        -1.24324
             123               1        -1.06581
             123               2        -1.00288
             123               3        -1.00040
             124               1        -1.02044
             124               2        -1.08336
             124               3        -1.08819
             125               1    -927.023E-03
             125               2    -870.346E-03
             125               3    -871.502E-03
             126               1    -893.379E-03
             126               2    -948.476E-03
             126               3    -946.445E-03
             127               1    -800.024E-03
             127               2    -745.948E-03
             127               3    -749.388E-03
             128               1    -772.264E-03
             128               2    -825.681E-03
             128               3    -819.087E-03
             129               1    -677.549E-03
             129               2    -623.898E-03
             129               3    -627.515E-03
             130               1    -649.927E-03
             130               2    -703.934E-03
             130               3    -697.111E-03
             131               1    -555.867E-03
             131               2    -502.122E-03
             131               3    -504.770E-03
             132               1    -526.092E-03
             132               2    -580.658E-03
             132               3    -575.618E-03
             133               1    -434.276E-03
             133               2    -380.636E-03
             133               3    -381.993E-03
             134               1    -402.135E-03
             134               2    -456.697E-03
             134               3    -453.783E-03
             135               1    -313.289E-03
             135               2    -260.112E-03
             135               3    -260.240E-03
             136               1    -279.300E-03
             136               2    -333.341E-03
             136               3    -332.280E-03
             137               1    -193.650E-03
             137               2    -141.238E-03
             137               3    -140.343E-03
             138               1    -158.494E-03
             138               2    -211.605E-03
             138               3    -211.986E-03
             139               1    -75.9219E-03
             139               2    -24.3676E-03
             139               3    -22.8069E-03
             140               1    -40.3898E-03
             140               2    -92.2661E-03
             140               3    -93.5823E-03
             141               1        -1.21661
             141               2        -1.14710
             141               3        -1.14210
             142               1        -1.16087
             142               2        -1.23528
             142               3        -1.24306
             143               1        -1.06527
             143               2        -1.00783
             143               3        -1.01093
             144               1        -1.03493
             144               2        -1.08664
             144               3        -1.08531
             145               1    -937.744E-03
             145               2    -885.034E-03
             145               3    -896.129E-03
             146               1    -925.800E-03
             146               2    -975.550E-03
             146               3    -956.559E-03
             147               1    -817.172E-03
             147               2    -763.356E-03
             147               3    -775.275E-03
             148               1    -803.914E-03
             148               2    -858.514E-03
             148               3    -839.048E-03
             149               1    -694.266E-03
             149               2    -638.958E-03
             149               3    -648.124E-03
             150               1    -673.880E-03
             150               2    -731.237E-03
             150               3    -717.398E-03
             151               1    -568.961E-03
             151               2    -513.155E-03
             151               3    -519.003E-03
             152               1    -542.141E-03
             152               2    -599.991E-03
             152               3    -591.629E-03
             153               1    -443.221E-03
             153               2    -387.742E-03
             153               3    -390.800E-03
             154               1    -411.932E-03
             154               2    -469.085E-03
             154               3    -464.755E-03
             155               1    -318.595E-03
             155               2    -263.943E-03
             155               3    -264.902E-03
             156               1    -284.541E-03
             156               2    -340.493E-03
             156               3    -338.891E-03
             157               1    -196.055E-03
             157               2    -142.579E-03
             157               3    -142.030E-03
             158               1    -160.499E-03
             158               2    -214.975E-03
             158               3    -215.184E-03
             159               1    -76.3529E-03
             159               2    -24.3856E-03
             159               3    -22.9706E-03
             160               1    -40.5522E-03
             160               2    -93.0786E-03
             160               3    -94.4012E-03
             161               1        -1.21037
             161               2        -1.15025
             161               3        -1.15101
             162               1        -1.17152
             162               2        -1.21106
             162               3        -1.24273
             163               1        -1.08524
             163               2        -1.04210
             163               3        -1.07563
             164               1        -1.13221
             164               2        -1.16614
             164               3        -1.09619
             165               1    -980.430E-03
             165               2    -928.329E-03
             165               3    -961.731E-03
             166               1        -1.00813
             166               2        -1.06628
             166               3        -1.00697
             167               1    -858.112E-03
             167               2    -799.193E-03
             167               3    -821.860E-03
             168               1    -856.450E-03
             168               2    -922.307E-03
             168               3    -889.484E-03
             169               1    -724.625E-03
             169               2    -664.009E-03
             169               3    -677.460E-03
             170               1    -705.195E-03
             170               2    -770.819E-03
             170               3    -753.977E-03
             171               1    -588.984E-03
             171               2    -529.095E-03
             171               3    -536.310E-03
             172               1    -560.024E-03
             172               2    -623.285E-03
             172               3    -615.165E-03
             173               1    -455.385E-03
             173               2    -397.065E-03
             173               3    -400.318E-03
             174               1    -421.501E-03
             174               2    -482.053E-03
             174               3    -478.826E-03
             175               1    -325.286E-03
             175               2    -268.727E-03
             175               3    -269.576E-03
             176               1    -289.168E-03
             176               2    -347.143E-03
             176               3    -346.617E-03
             177               1    -199.007E-03
             177               2    -144.251E-03
             177               3    -143.680E-03
             178               1    -162.269E-03
             178               2    -217.986E-03
             178               3    -218.741E-03
             179               1    -76.8756E-03
             179               2    -24.4432E-03
             179               3    -23.1225E-03
             180               1    -40.6044E-03
             180               2    -93.7383E-03
             180               3    -95.2683E-03
             181               1        -1.27414
             181               2        -1.27484
             181               3        -1.46637
             182               1        -1.91757
             182               2        -2.19654
             182               3        -1.08033
             183               1        -1.22878
             183               2        -1.17284
             183               3        -1.29406
             184               1        -1.40383
             184               2        -1.57275
             184               3        -1.29886
             185               1        -1.09137
             185               2        -1.01469
             185               3        -1.06831
             186               1        -1.11274
             186               2        -1.22258
             186               3        -1.16026
             187               1    -924.372E-03
             187               2    -849.654E-03
             187               3    -873.916E-03
             188               1    -904.716E-03
             188               2    -991.764E-03
             188               3    -971.326E-03
             189               1    -762.132E-03
             189               2    -692.445E-03
             189               3    -703.539E-03
             190               1    -728.855E-03
             190               2    -804.594E-03
             190               3    -796.869E-03
             191               1    -609.619E-03
             191               2    -544.436E-03
             191               3    -548.834E-03
             192               1    -570.857E-03
             192               2    -639.535E-03
             192               3    -637.661E-03
             193               1    -466.048E-03
             193               2    -404.650E-03
             193               3    -405.393E-03
             194               1    -425.141E-03
             194               2    -488.710E-03
             194               3    -490.038E-03
             195               1    -330.196E-03
             195               2    -272.061E-03
             195               3    -270.979E-03
             196               1    -289.147E-03
             196               2    -348.503E-03
             196               3    -351.558E-03
             197               1    -201.081E-03
             197               2    -145.709E-03
             197               3    -144.402E-03
             198               1    -162.167E-03
             198               2    -217.432E-03
             198               3    -220.682E-03
             199               1    -77.5323E-03
             199               2    -24.3903E-03
             199               3    -23.9813E-03
             200               1    -44.2703E-03
             200               2    -95.7291E-03
             200               3    -95.6736E-03


  Minimum                               -2.19654
      At Element                             182
          Int Pt                               2

  Maximum                           -21.0799E-03
      At Element                              19
          Int Pt                               2

           Total                        -381.883


********************************************************************************
Field Output Report, written Tue Mar 06 14:05:21 2018

Source 1
---------

   ODB: C:/Users/Wagner/Desktop/Projeto FEM/FEM-matlab/Benchmarks/Vaso de Pressao/Job-1.odb
   Step: Step-1
   Frame: Increment      1: Step Time =    1.000

Loc 1 : Integration point values from source 1

Output sorted by column "Element Label".

Field Output reported at integration points for part: PART-1-1

         Element             Int           E.E11           E.E22           E.E33           E.E12
           Label              Pt          @Loc 1          @Loc 1          @Loc 1          @Loc 1
-------------------------------------------------------------------------------------------------
               1               1    -30.8485E-06    -18.1540E-06     71.9964E-06    -3.03237E-06
               1               2    -29.2334E-06    -17.9178E-06     71.5754E-06    -1.54086E-06
               1               3    -27.1716E-06    -19.1103E-06     71.5676E-06    -2.42681E-06
               2               1    -27.1796E-06    -19.5111E-06     71.7541E-06    -1.43084E-06
               2               2    -27.2609E-06    -19.0811E-06     72.1658E-06     34.4925E-09
               2               3    -27.7097E-06    -20.1189E-06     72.1835E-06    -3.60236E-06
               3               1    -27.6443E-06    -18.3930E-06     71.0013E-06    -555.130E-09
               3               2    -26.8969E-06    -18.5000E-06     70.5992E-06    -335.156E-09
               3               3    -26.5805E-06    -18.7124E-06     70.5974E-06    -874.779E-09
               4               1    -26.6648E-06    -18.8421E-06     70.7821E-06    -943.867E-09
               4               2    -27.0614E-06    -18.9669E-06     71.1843E-06    -1.42481E-06
               4               3    -27.5966E-06    -18.4050E-06     71.1891E-06    -1.16857E-06
               5               1    -26.0705E-06    -18.6810E-06     70.0464E-06    -152.631E-09
               5               2    -25.5400E-06    -18.7511E-06     69.6580E-06    -107.491E-09
               5               3    -25.4601E-06    -18.8097E-06     69.6574E-06    -400.495E-09
               6               1    -25.5814E-06    -18.8516E-06     69.8372E-06    -500.780E-09
               6               2    -26.0713E-06    -18.8014E-06     70.2273E-06    -697.588E-09
               6               3    -26.2502E-06    -18.6403E-06     70.2290E-06    -336.005E-09
               7               1    -24.8951E-06    -18.8416E-06     69.1229E-06    -59.7145E-09
               7               2    -24.4365E-06    -18.8905E-06     68.7465E-06    -45.2186E-09
               7               3    -24.3989E-06    -18.9192E-06     68.7462E-06    -226.021E-09
               8               1    -24.5349E-06    -18.9374E-06     68.9209E-06    -283.800E-09
               8               2    -24.9945E-06    -18.8782E-06     69.2992E-06    -381.974E-09
               8               3    -25.0767E-06    -18.8107E-06     69.3000E-06    -138.285E-09
               9               1    -23.8600E-06    -18.9510E-06     68.2275E-06    -23.8753E-09
               9               2    -23.4407E-06    -18.9860E-06     67.8623E-06    -17.9228E-09
               9               3    -23.4161E-06    -19.0049E-06     67.8622E-06    -138.637E-09
              10               1    -23.5555E-06    -19.0157E-06     68.0319E-06    -167.346E-09
              10               2    -23.9821E-06    -18.9677E-06     68.3991E-06    -226.704E-09
              10               3    -24.0284E-06    -18.9290E-06     68.3994E-06    -64.5474E-09
              11               1    -22.9054E-06    -19.0295E-06     67.3586E-06    -5.73721E-09
              11               2    -22.5129E-06    -19.0547E-06     67.0039E-06    -3.21890E-09
              11               3    -22.4942E-06    -19.0688E-06     67.0039E-06    -88.9046E-09
              12               1    -22.6325E-06    -19.0772E-06     67.1688E-06    -100.488E-09
              12               2    -23.0330E-06    -19.0400E-06     67.5253E-06    -140.384E-09
              12               3    -23.0626E-06    -19.0140E-06     67.5255E-06    -27.1702E-09
              13               1    -22.0071E-06    -19.0869E-06     66.5146E-06     4.18792E-09
              13               2    -21.6345E-06    -19.1055E-06     66.1701E-06     4.91129E-09
              13               3    -21.6193E-06    -19.1168E-06     66.1701E-06    -60.1619E-09
              14               1    -21.7550E-06    -19.1240E-06     66.3303E-06    -61.6839E-09
              14               2    -22.1351E-06    -19.0949E-06     66.6767E-06    -89.9633E-09
              14               3    -22.1556E-06    -19.0759E-06     66.6768E-06    -6.23224E-09
              15               1    -21.1513E-06    -19.1303E-06     65.6945E-06     9.35138E-09
              15               2    -20.7939E-06    -19.1448E-06     65.3596E-06     8.78275E-09
              15               3    -20.7811E-06    -19.1540E-06     65.3596E-06    -44.8539E-09
              16               1    -20.9142E-06    -19.1605E-06     65.5154E-06    -40.5424E-09
              16               2    -21.2782E-06    -19.1368E-06     65.8521E-06    -61.1923E-09
              16               3    -21.2931E-06    -19.1223E-06     65.8522E-06     5.16023E-09
              17               1    -20.3283E-06    -19.1651E-06     64.8973E-06     10.8345E-09
              17               2    -19.9830E-06    -19.1767E-06     64.5717E-06     8.13775E-09
              17               3    -19.9740E-06    -19.1833E-06     64.5717E-06    -38.4165E-09
              18               1    -20.1040E-06    -19.1897E-06     64.7232E-06    -30.3976E-09
              18               2    -20.4546E-06    -19.1700E-06     65.0506E-06    -46.4557E-09
              18               3    -20.4653E-06    -19.1586E-06     65.0506E-06     9.92381E-09
              19               1    -19.5300E-06    -19.1932E-06     64.1221E-06     3.45324E-09
              19               2    -19.1963E-06    -19.1967E-06     63.8053E-06    -1.71866E-09
              19               3    -19.2023E-06    -19.2018E-06     63.8053E-06    -26.3045E-09
              20               1    -19.3237E-06    -19.2105E-06     63.9526E-06    -20.0551E-09
              20               2    -19.6603E-06    -19.1961E-06     64.2711E-06    -38.9766E-09
              20               3    -19.6675E-06    -19.1867E-06     64.2711E-06     7.96323E-09
              21               1    -27.1462E-06    -19.2604E-06     71.9660E-06    -150.024E-09
              21               2    -26.8355E-06    -19.2568E-06     71.5570E-06    -931.125E-09
              21               3    -26.7905E-06    -19.1473E-06     71.5520E-06    -584.170E-09
              22               1    -26.9131E-06    -19.1721E-06     71.7403E-06    -279.280E-09
              22               2    -27.4503E-06    -18.8581E-06     72.1518E-06    -41.3346E-09
              22               3    -27.4518E-06    -18.8942E-06     72.1561E-06    -30.9729E-09
              23               1    -26.6365E-06    -19.0253E-06     70.9918E-06    -1.04360E-06
              23               2    -26.3012E-06    -18.9376E-06     70.5930E-06    -945.941E-09
              23               3    -26.0197E-06    -19.0870E-06     70.5897E-06    -836.532E-09
              24               1    -26.1195E-06    -19.1369E-06     70.7732E-06    -714.989E-09
              24               2    -26.4371E-06    -19.1763E-06     71.1728E-06    -627.002E-09
              24               3    -26.5544E-06    -19.1661E-06     71.1771E-06    -984.659E-09
              25               1    -25.7757E-06    -18.8882E-06     70.0427E-06    -690.570E-09
              25               2    -25.3420E-06    -18.9015E-06     69.6554E-06    -530.478E-09
              25               3    -25.1804E-06    -19.0098E-06     69.6536E-06    -611.240E-09
              26               1    -25.2910E-06    -19.0501E-06     69.8326E-06    -617.721E-09
              26               2    -25.6633E-06    -19.0750E-06     70.2213E-06    -729.178E-09
              26               3    -25.8172E-06    -18.9621E-06     70.2239E-06    -764.556E-09
              27               1    -24.7742E-06    -18.9292E-06     69.1212E-06    -398.623E-09
              27               2    -24.3464E-06    -18.9609E-06     68.7452E-06    -295.962E-09
              27               3    -24.2591E-06    -19.0251E-06     68.7443E-06    -395.377E-09
              28               1    -24.3812E-06    -19.0513E-06     68.9185E-06    -423.968E-09
              28               2    -24.7821E-06    -19.0371E-06     69.2962E-06    -531.758E-09
              28               3    -24.8859E-06    -18.9558E-06     69.2976E-06    -457.319E-09
              29               1    -23.8010E-06    -18.9943E-06     68.2267E-06    -228.327E-09
              29               2    -23.3931E-06    -19.0245E-06     67.8617E-06    -162.724E-09
              29               3    -23.3414E-06    -19.0648E-06     67.8613E-06    -247.630E-09
              30               1    -23.4697E-06    -19.0825E-06     68.0307E-06    -269.670E-09
              30               2    -23.8670E-06    -19.0582E-06     68.3975E-06    -350.779E-09
              30               3    -23.9339E-06    -19.0045E-06     68.3982E-06    -265.019E-09
              31               1    -22.8745E-06    -19.0520E-06     67.3582E-06    -127.432E-09
              31               2    -22.4863E-06    -19.0769E-06     67.0037E-06    -83.6309E-09
              31               3    -22.4532E-06    -19.1036E-06     67.0035E-06    -151.863E-09
              32               1    -22.5839E-06    -19.1164E-06     67.1683E-06    -163.646E-09
              32               2    -22.9680E-06    -19.0932E-06     67.5246E-06    -221.599E-09
              32               3    -23.0119E-06    -19.0571E-06     67.5249E-06    -147.771E-09
              33               1    -21.9914E-06    -19.0977E-06     66.5145E-06    -67.2857E-09
              33               2    -21.6199E-06    -19.1179E-06     66.1700E-06    -37.4802E-09
              33               3    -21.5979E-06    -19.1362E-06     66.1700E-06    -93.1647E-09
              34               1    -21.7288E-06    -19.1457E-06     66.3302E-06    -96.6300E-09
              34               2    -22.0986E-06    -19.1259E-06     66.6764E-06    -136.918E-09
              34               3    -22.1279E-06    -19.1014E-06     66.6766E-06    -76.3172E-09
              35               1    -21.1448E-06    -19.1338E-06     65.6945E-06    -33.3488E-09
              35               2    -20.7873E-06    -19.1508E-06     65.3596E-06    -12.8618E-09
              35               3    -20.7724E-06    -19.1634E-06     65.3597E-06    -60.2691E-09
              36               1    -20.9023E-06    -19.1705E-06     65.5155E-06    -58.2241E-09
              36               2    -21.2593E-06    -19.1537E-06     65.8521E-06    -85.9015E-09
              36               3    -21.2790E-06    -19.1368E-06     65.8521E-06    -34.9527E-09
              37               1    -20.3289E-06    -19.1632E-06     64.8973E-06    -16.0638E-09
              37               2    -19.9838E-06    -19.1779E-06     64.5717E-06    -306.717E-12
              37               3    -19.9733E-06    -19.1877E-06     64.5717E-06    -41.9110E-09
              38               1    -20.1012E-06    -19.1932E-06     64.7233E-06    -37.3777E-09
              38               2    -20.4470E-06    -19.1780E-06     65.0507E-06    -57.9730E-09
              38               3    -20.4607E-06    -19.1659E-06     65.0506E-06    -13.1682E-09
              39               1    -19.5415E-06    -19.1869E-06     64.1221E-06    -3.08648E-09
              39               2    -19.2067E-06    -19.2018E-06     63.8053E-06     17.9519E-09
              39               3    -19.1960E-06    -19.2130E-06     63.8053E-06    -22.3263E-09
              40               1    -19.3218E-06    -19.2168E-06     63.9528E-06    -19.4669E-09
              40               2    -19.6582E-06    -19.2016E-06     64.2712E-06    -40.3271E-09
              40               3    -19.6693E-06    -19.1908E-06     64.2711E-06     770.671E-12
              41               1    -27.2461E-06    -18.9587E-06     71.9561E-06    -20.0293E-09
              41               2    -26.7888E-06    -19.0721E-06     71.5471E-06    -234.857E-09
              41               3    -26.7948E-06    -19.0224E-06     71.5447E-06    -204.340E-09
              42               1    -26.9672E-06    -18.9904E-06     71.7341E-06    -115.701E-09
              42               2    -27.4602E-06    -18.8266E-06     72.1456E-06    -41.4711E-09
              42               3    -27.4679E-06    -18.8321E-06     72.1477E-06     10.6469E-09
              43               1    -26.2826E-06    -19.1240E-06     70.9829E-06    -448.701E-09
              43               2    -25.9223E-06    -19.1215E-06     70.5857E-06    -554.187E-09
              43               3    -25.8509E-06    -19.1334E-06     70.5835E-06    -459.910E-09
              44               1    -25.9860E-06    -19.1374E-06     70.7673E-06    -373.078E-09
              44               2    -26.3954E-06    -19.0779E-06     71.1666E-06    -280.837E-09
              44               3    -26.4174E-06    -19.1059E-06     71.1688E-06    -357.753E-09
              45               1    -25.4550E-06    -19.0816E-06     70.0373E-06    -565.917E-09
              45               2    -25.0825E-06    -19.0762E-06     69.6511E-06    -514.159E-09
              45               3    -24.9834E-06    -19.1332E-06     69.6496E-06    -484.146E-09
              46               1    -25.1060E-06    -19.1534E-06     69.8285E-06    -450.067E-09
              46               2    -25.4814E-06    -19.1484E-06     70.2164E-06    -462.695E-09
              46               3    -25.5474E-06    -19.1213E-06     70.2182E-06    -534.969E-09
              47               1    -24.5825E-06    -19.0634E-06     69.1182E-06    -441.375E-09
              47               2    -24.1954E-06    -19.0733E-06     68.7430E-06    -357.526E-09
              47               3    -24.1151E-06    -19.1295E-06     68.7421E-06    -375.990E-09
              48               1    -24.2376E-06    -19.1523E-06     68.9161E-06    -370.956E-09
              48               2    -24.6139E-06    -19.1478E-06     69.2931E-06    -437.208E-09
              48               3    -24.6869E-06    -19.0970E-06     69.2943E-06    -449.468E-09
              49               1    -23.6888E-06    -19.0794E-06     68.2252E-06    -290.093E-09
              49               2    -23.3052E-06    -19.0942E-06     67.8606E-06    -217.394E-09
              49               3    -23.2484E-06    -19.1376E-06     67.8602E-06    -251.791E-09
              50               1    -23.3735E-06    -19.1576E-06     68.0295E-06    -253.957E-09
              50               2    -23.7482E-06    -19.1484E-06     68.3958E-06    -324.598E-09
              50               3    -23.8074E-06    -19.1015E-06     68.3965E-06    -304.351E-09
              51               1    -22.8089E-06    -19.1046E-06     67.3575E-06    -171.372E-09
              51               2    -22.4356E-06    -19.1190E-06     67.0032E-06    -116.862E-09
              51               3    -22.3970E-06    -19.1500E-06     67.0031E-06    -153.619E-09
              52               1    -22.5241E-06    -19.1661E-06     67.1678E-06    -153.947E-09
              52               2    -22.8918E-06    -19.1556E-06     67.5238E-06    -211.534E-09
              52               3    -22.9349E-06    -19.1195E-06     67.5241E-06    -180.652E-09
              53               1    -21.9543E-06    -19.1285E-06     66.5143E-06    -91.2705E-09
              53               2    -21.5924E-06    -19.1417E-06     66.1699E-06    -53.0366E-09
              53               3    -21.5666E-06    -19.1630E-06     66.1700E-06    -88.5875E-09
              54               1    -21.6946E-06    -19.1752E-06     66.3301E-06    -85.0855E-09
              54               2    -22.0532E-06    -19.1651E-06     66.6763E-06    -126.707E-09
              54               3    -22.0831E-06    -19.1393E-06     66.6763E-06    -93.7705E-09
              55               1    -21.1261E-06    -19.1498E-06     65.6946E-06    -43.4428E-09
              55               2    -20.7748E-06    -19.1626E-06     65.3597E-06    -17.3794E-09
              55               3    -20.7575E-06    -19.1770E-06     65.3599E-06    -51.8353E-09
              56               1    -20.8855E-06    -19.1857E-06     65.5157E-06    -45.3781E-09
              56               2    -21.2350E-06    -19.1755E-06     65.8523E-06    -73.4322E-09
              56               3    -21.2554E-06    -19.1579E-06     65.8522E-06    -40.4283E-09
              57               1    -20.3219E-06    -19.1703E-06     64.8975E-06    -18.1023E-09
              57               2    -19.9797E-06    -19.1842E-06     64.5719E-06     1.33642E-09
              57               3    -19.9675E-06    -19.1948E-06     64.5720E-06    -33.7248E-09
              58               1    -20.0949E-06    -19.2001E-06     64.7236E-06    -26.5832E-09
              58               2    -20.4363E-06    -19.1885E-06     65.0510E-06    -45.6276E-09
              58               3    -20.4505E-06    -19.1763E-06     65.0508E-06    -11.9416E-09
              59               1    -19.5384E-06    -19.1932E-06     64.1223E-06    -2.13806E-09
              59               2    -19.2032E-06    -19.2103E-06     63.8055E-06     18.2604E-09
              59               3    -19.1925E-06    -19.2210E-06     63.8057E-06    -20.7857E-09
              60               1    -19.3192E-06    -19.2228E-06     63.9531E-06    -16.4259E-09
              60               2    -19.6545E-06    -19.2075E-06     64.2716E-06    -32.8846E-09
              60               3    -19.6653E-06    -19.1977E-06     64.2714E-06     3.65002E-09
              61               1    -27.2842E-06    -18.8640E-06     71.9515E-06    -11.3833E-09
              61               2    -26.8161E-06    -18.9719E-06     71.5424E-06    -86.5957E-09
              61               3    -26.8136E-06    -18.9539E-06     71.5413E-06    -120.259E-09
              62               1    -26.9929E-06    -18.9172E-06     71.7313E-06    -84.8749E-09
              62               2    -27.4700E-06    -18.8002E-06     72.1429E-06    -46.2317E-09
              62               3    -27.4784E-06    -18.8034E-06     72.1437E-06     8.46398E-09
              63               1    -26.2445E-06    -19.0647E-06     70.9783E-06    -210.907E-09
              63               2    -25.8323E-06    -19.1154E-06     70.5812E-06    -282.440E-09
              63               3    -25.8082E-06    -19.1121E-06     70.5802E-06    -264.828E-09
              64               1    -25.9627E-06    -19.0992E-06     70.7645E-06    -218.783E-09
              64               2    -26.4020E-06    -19.0156E-06     71.1637E-06    -176.373E-09
              64               3    -26.4148E-06    -19.0278E-06     71.1646E-06    -163.867E-09
              65               1    -25.3198E-06    -19.1373E-06     70.0336E-06    -342.932E-09
              65               2    -24.9382E-06    -19.1542E-06     69.6479E-06    -337.727E-09
              65               3    -24.8886E-06    -19.1800E-06     69.6472E-06    -308.590E-09
              66               1    -25.0247E-06    -19.1874E-06     69.8262E-06    -275.274E-09
              66               2    -25.4232E-06    -19.1491E-06     70.2138E-06    -280.860E-09
              66               3    -25.4561E-06    -19.1397E-06     70.2146E-06    -305.583E-09
              67               1    -24.4450E-06    -19.1528E-06     69.1158E-06    -322.238E-09
              67               2    -24.0722E-06    -19.1600E-06     68.7411E-06    -271.233E-09
              67               3    -24.0183E-06    -19.1977E-06     68.7406E-06    -256.012E-09
              68               1    -24.1467E-06    -19.2150E-06     68.9147E-06    -235.936E-09
              68               2    -24.5226E-06    -19.2010E-06     69.2913E-06    -280.398E-09
              68               3    -24.5667E-06    -19.1720E-06     69.2919E-06    -305.995E-09
              69               1    -23.5859E-06    -19.1568E-06     68.2239E-06    -229.266E-09
              69               2    -23.2190E-06    -19.1619E-06     67.8597E-06    -170.379E-09
              69               3    -23.1740E-06    -19.1969E-06     67.8596E-06    -169.801E-09
              70               1    -23.3010E-06    -19.2158E-06     68.0289E-06    -155.979E-09
              70               2    -23.6651E-06    -19.2113E-06     68.3949E-06    -210.509E-09
              70               3    -23.7064E-06    -19.1779E-06     68.3952E-06    -223.343E-09
              71               1    -22.7411E-06    -19.1596E-06     67.3571E-06    -133.090E-09
              71               2    -22.3813E-06    -19.1643E-06     67.0030E-06    -83.6541E-09
              71               3    -22.3481E-06    -19.1915E-06     67.0031E-06    -93.3003E-09
              72               1    -22.4756E-06    -19.2082E-06     67.1678E-06    -80.9908E-09
              72               2    -22.8316E-06    -19.2065E-06     67.5237E-06    -128.037E-09
              72               3    -22.8642E-06    -19.1779E-06     67.5237E-06    -128.319E-09
              73               1    -21.9138E-06    -19.1629E-06     66.5143E-06    -61.2054E-09
              73               2    -21.5617E-06    -19.1684E-06     66.1701E-06    -25.3494E-09
              73               3    -21.5385E-06    -19.1876E-06     66.1703E-06    -42.0126E-09
              74               1    -21.6664E-06    -19.2007E-06     66.3305E-06    -29.4521E-09
              74               2    -22.0155E-06    -19.1988E-06     66.6765E-06    -63.5662E-09
              74               3    -22.0392E-06    -19.1775E-06     66.6764E-06    -54.0854E-09
              75               1    -21.1049E-06    -19.1683E-06     65.6949E-06    -18.0025E-09
              75               2    -20.7600E-06    -19.1758E-06     65.3601E-06     5.81753E-09
              75               3    -20.7442E-06    -19.1886E-06     65.3604E-06    -16.3082E-09
              76               1    -20.8719E-06    -19.1979E-06     65.5163E-06    -3.47660E-09
              76               2    -21.2147E-06    -19.1941E-06     65.8528E-06    -25.2300E-09
              76               3    -21.2314E-06    -19.1793E-06     65.8525E-06    -8.23486E-09
              77               1    -20.3132E-06    -19.1784E-06     64.8979E-06     1.64782E-09
              77               2    -19.9744E-06    -19.1899E-06     64.5723E-06     17.3489E-09
              77               3    -19.9632E-06    -19.1985E-06     64.5726E-06    -10.5685E-09
              78               1    -20.0907E-06    -19.2035E-06     64.7243E-06     1.38949E-09
              78               2    -20.4280E-06    -19.1959E-06     65.0516E-06    -10.7068E-09
              78               3    -20.4400E-06    -19.1861E-06     65.0513E-06     12.8455E-09
              79               1    -19.5358E-06    -19.1973E-06     64.1227E-06     7.43387E-09
              79               2    -19.2008E-06    -19.2161E-06     63.8060E-06     21.2617E-09
              79               3    -19.1913E-06    -19.2237E-06     63.8063E-06    -15.8882E-09
              80               1    -19.3192E-06    -19.2232E-06     63.9538E-06    -7.60969E-09
              80               2    -19.6529E-06    -19.2088E-06     64.2723E-06    -13.9249E-09
              80               3    -19.6621E-06    -19.2020E-06     64.2719E-06     17.4485E-09
              81               1    -27.3036E-06    -18.8159E-06     71.9497E-06    -17.5783E-09
              81               2    -26.8330E-06    -18.9213E-06     71.5405E-06    -56.8862E-09
              81               3    -26.8257E-06    -18.9150E-06     71.5404E-06    -110.955E-09
              82               1    -27.0082E-06    -18.8741E-06     71.7308E-06    -92.6912E-09
              82               2    -27.4841E-06    -18.7664E-06     72.1425E-06    -55.5227E-09
              82               3    -27.4906E-06    -18.7732E-06     72.1424E-06     2.68283E-09
              83               1    -26.2438E-06    -19.0216E-06     70.9764E-06    -129.590E-09
              83               2    -25.8093E-06    -19.0950E-06     70.5794E-06    -155.783E-09
              83               3    -25.7919E-06    -19.1003E-06     70.5793E-06    -174.131E-09
              84               1    -25.9530E-06    -19.0822E-06     70.7640E-06    -154.556E-09
              84               2    -26.4057E-06    -18.9853E-06     71.1632E-06    -153.945E-09
              84               3    -26.4211E-06    -18.9841E-06     71.1632E-06    -108.644E-09
              85               1    -25.2688E-06    -19.1498E-06     70.0319E-06    -190.195E-09
              85               2    -24.8728E-06    -19.1850E-06     69.6466E-06    -176.810E-09
              85               3    -24.8434E-06    -19.2050E-06     69.6466E-06    -161.741E-09
              86               1    -24.9867E-06    -19.2087E-06     69.8259E-06    -138.679E-09
              86               2    -25.3980E-06    -19.1517E-06     70.2134E-06    -172.489E-09
              86               3    -25.4226E-06    -19.1371E-06     70.2133E-06    -169.114E-09
              87               1    -24.3703E-06    -19.2019E-06     69.1148E-06    -168.896E-09
              87               2    -23.9989E-06    -19.2126E-06     68.7404E-06    -128.777E-09
              87               3    -23.9664E-06    -19.2390E-06     68.7406E-06    -103.594E-09
              88               1    -24.1011E-06    -19.2536E-06     68.9149E-06    -78.6854E-09
              88               2    -24.4790E-06    -19.2322E-06     69.2913E-06    -126.044E-09
              88               3    -24.5056E-06    -19.2097E-06     69.2911E-06    -150.022E-09
              89               1    -23.5186E-06    -19.2103E-06     68.2236E-06    -103.033E-09
              89               2    -23.1602E-06    -19.2103E-06     67.8597E-06    -57.8810E-09
              89               3    -23.1321E-06    -19.2347E-06     67.8600E-06    -39.0290E-09
              90               1    -23.2641E-06    -19.2517E-06     68.0295E-06    -14.5308E-09
              90               2    -23.6230E-06    -19.2495E-06     68.3953E-06    -58.2460E-09
              90               3    -23.6458E-06    -19.2270E-06     68.3950E-06    -85.9264E-09
              91               1    -22.6931E-06    -19.2011E-06     67.3573E-06    -35.3018E-09
              91               2    -22.3424E-06    -19.1987E-06     67.0034E-06     2.31651E-09
              91               3    -22.3210E-06    -19.2176E-06     67.0038E-06     9.13152E-09
              92               1    -22.4521E-06    -19.2328E-06     67.1687E-06     31.8613E-09
              92               2    -22.8014E-06    -19.2373E-06     67.5244E-06    -868.162E-12
              92               3    -22.8187E-06    -19.2190E-06     67.5240E-06    -18.6995E-09
              93               1    -21.8847E-06    -19.1891E-06     66.5149E-06     12.9924E-09
              93               2    -21.5397E-06    -19.1881E-06     66.1708E-06     39.4310E-09
              93               3    -21.5242E-06    -19.2014E-06     66.1712E-06     34.4394E-09
              94               1    -21.6545E-06    -19.2135E-06     66.3316E-06     55.0232E-09
              94               2    -21.9980E-06    -19.2178E-06     66.6775E-06     34.0224E-09
              94               3    -22.0108E-06    -19.2046E-06     66.6770E-06     29.6867E-09
              95               1    -21.0902E-06    -19.1812E-06     65.6956E-06     37.2319E-09
              95               2    -20.7502E-06    -19.1839E-06     65.3609E-06     53.1666E-09
              95               3    -20.7389E-06    -19.1925E-06     65.3614E-06     38.3321E-09
              96               1    -20.8681E-06    -19.2011E-06     65.5174E-06     56.9243E-09
              96               2    -21.2069E-06    -19.2022E-06     65.8539E-06     46.0948E-09
              96               3    -21.2168E-06    -19.1933E-06     65.8534E-06     54.0445E-09
              97               1    -20.3082E-06    -19.1816E-06     64.8988E-06     39.9917E-09
              97               2    -19.9724E-06    -19.1900E-06     64.5732E-06     47.3868E-09
              97               3    -19.9639E-06    -19.1950E-06     64.5737E-06     23.5615E-09
              98               1    -20.0920E-06    -19.1995E-06     64.7254E-06     40.2552E-09
              98               2    -20.4267E-06    -19.1955E-06     65.0527E-06     38.3978E-09
              98               3    -20.4348E-06    -19.1900E-06     65.0522E-06     56.5725E-09
              99               1    -19.5364E-06    -19.1950E-06     64.1236E-06     25.8912E-09
              99               2    -19.2021E-06    -19.2135E-06     63.8068E-06     27.4199E-09
              99               3    -19.1949E-06    -19.2158E-06     63.8073E-06    -8.69061E-09
             100               1    -19.3238E-06    -19.2138E-06     63.9549E-06     5.12528E-09
             100               2    -19.6560E-06    -19.2018E-06     64.2734E-06     12.4852E-09
             100               3    -19.6627E-06    -19.1993E-06     64.2729E-06     41.0180E-09
             101               1    -27.3211E-06    -18.7728E-06     71.9501E-06    -35.5461E-09
             101               2    -26.8418E-06    -18.8921E-06     71.5408E-06    -69.6865E-09
             101               3    -26.8318E-06    -18.8909E-06     71.5416E-06    -136.698E-09
             102               1    -27.0201E-06    -18.8377E-06     71.7324E-06    -128.086E-09
             102               2    -27.5068E-06    -18.7139E-06     72.1442E-06    -75.0487E-09
             102               3    -27.5093E-06    -18.7301E-06     72.1432E-06    -9.79251E-09
             103               1    -26.2403E-06    -19.0069E-06     70.9767E-06    -108.468E-09
             103               2    -25.7950E-06    -19.0959E-06     70.5798E-06    -92.1996E-09
             103               3    -25.7744E-06    -19.1156E-06     70.5806E-06    -119.876E-09
             104               1    -25.9359E-06    -19.0986E-06     70.7656E-06    -119.168E-09
             104               2    -26.3995E-06    -18.9805E-06     71.1648E-06    -168.477E-09
             104               3    -26.4217E-06    -18.9654E-06     71.1639E-06    -107.573E-09
             105               1    -25.2422E-06    -19.1686E-06     70.0324E-06    -80.7718E-09
             105               2    -24.8421E-06    -19.2102E-06     69.6471E-06    -37.6102E-09
             105               3    -24.8215E-06    -19.2348E-06     69.6480E-06    -20.1831E-09
             106               1    -24.9677E-06    -19.2419E-06     69.8277E-06    -3.14971E-09
             106               2    -25.3793E-06    -19.1778E-06     70.2151E-06    -80.2313E-09
             106               3    -25.4011E-06    -19.1513E-06     70.2141E-06    -76.5165E-09
             107               1    -24.3363E-06    -19.2356E-06     69.1156E-06    -10.7585E-09
             107               2    -23.9674E-06    -19.2446E-06     68.7413E-06     33.6325E-09
             107               3    -23.9528E-06    -19.2642E-06     68.7421E-06     67.2546E-09
             108               1    -24.0944E-06    -19.2785E-06     68.9168E-06     97.4517E-09
             108               2    -24.4674E-06    -19.2602E-06     69.2931E-06     40.1153E-09
             108               3    -24.4776E-06    -19.2397E-06     69.2921E-06     5.91094E-09
             109               1    -23.4909E-06    -19.2412E-06     68.2246E-06     53.7384E-09
             109               2    -23.1376E-06    -19.2361E-06     67.8608E-06     88.0555E-09
             109               3    -23.1286E-06    -19.2492E-06     67.8616E-06     114.794E-09
             110               1    -23.2686E-06    -19.2632E-06     68.0314E-06     148.043E-09
             110               2    -23.6227E-06    -19.2671E-06     68.3972E-06     116.101E-09
             110               3    -23.6242E-06    -19.2554E-06     68.3963E-06     77.8937E-09
             111               1    -22.6762E-06    -19.2219E-06     67.3585E-06     94.6310E-09
             111               2    -22.3300E-06    -19.2142E-06     67.0047E-06     117.243E-09
             111               3    -22.3242E-06    -19.2223E-06     67.0055E-06     128.528E-09
             112               1    -22.4622E-06    -19.2340E-06     67.1705E-06     158.827E-09
             112               2    -22.8087E-06    -19.2438E-06     67.5263E-06     144.386E-09
             112               3    -22.8071E-06    -19.2379E-06     67.5254E-06     120.346E-09
             113               1    -21.8772E-06    -19.1991E-06     66.5162E-06     111.000E-09
             113               2    -21.5352E-06    -19.1940E-06     66.1721E-06     123.732E-09
             113               3    -21.5305E-06    -19.1990E-06     66.1728E-06     119.832E-09
             114               1    -21.6657E-06    -19.2082E-06     66.3333E-06     145.539E-09
             114               2    -22.0082E-06    -19.2163E-06     66.6793E-06     141.343E-09
             114               3    -22.0073E-06    -19.2134E-06     66.6785E-06     135.267E-09
             115               1    -21.0889E-06    -19.1826E-06     65.6970E-06     107.210E-09
             115               2    -20.7507E-06    -19.1821E-06     65.3622E-06     111.944E-09
             115               3    -20.7460E-06    -19.1848E-06     65.3629E-06     96.0748E-09
             116               1    -20.8781E-06    -19.1918E-06     65.5190E-06     117.850E-09
             116               2    -21.2170E-06    -19.1954E-06     65.8556E-06     120.132E-09
             116               3    -21.2182E-06    -19.1939E-06     65.8548E-06     129.312E-09
             117               1    -20.3108E-06    -19.1762E-06     64.9001E-06     86.6138E-09
             117               2    -19.9763E-06    -19.1816E-06     64.5744E-06     83.5800E-09
             117               3    -19.9713E-06    -19.1821E-06     64.5751E-06     58.2147E-09
             118               1    -20.1007E-06    -19.1861E-06     64.7269E-06     77.7308E-09
             118               2    -20.4355E-06    -19.1846E-06     65.0543E-06     86.5182E-09
             118               3    -20.4389E-06    -19.1841E-06     65.0536E-06     107.000E-09
             119               1    -19.5418E-06    -19.1834E-06     64.1248E-06     48.2653E-09
             119               2    -19.2089E-06    -19.1985E-06     63.8080E-06     34.9530E-09
             119               3    -19.2046E-06    -19.1947E-06     63.8086E-06    -1.60027E-09
             120               1    -19.3335E-06    -19.1934E-06     63.9563E-06     17.6206E-09
             120               2    -19.6647E-06    -19.1850E-06     64.2748E-06     37.7720E-09
             120               3    -19.6688E-06    -19.1872E-06     64.2742E-06     67.6675E-09
             121               1    -27.3433E-06    -18.7171E-06     71.9526E-06    -73.7053E-09
             121               2    -26.8426E-06    -18.8781E-06     71.5433E-06    -112.603E-09
             121               3    -26.8273E-06    -18.8848E-06     71.5450E-06    -191.655E-09
             122               1    -27.0246E-06    -18.8061E-06     71.7363E-06    -198.321E-09
             122               2    -27.5455E-06    -18.6214E-06     72.1482E-06    -122.367E-09
             122               3    -27.5417E-06    -18.6570E-06     72.1462E-06    -38.0852E-09
             123               1    -26.2235E-06    -19.0280E-06     70.9791E-06    -105.362E-09
             123               2    -25.7762E-06    -19.1294E-06     70.5823E-06    -32.6077E-09
             123               3    -25.7505E-06    -19.1698E-06     70.5841E-06    -37.8444E-09
             124               1    -25.9066E-06    -19.1648E-06     70.7697E-06    -48.3487E-09
             124               2    -26.3765E-06    -19.0127E-06     71.1688E-06    -189.144E-09
             124               3    -26.4101E-06    -18.9741E-06     71.1668E-06    -130.941E-09
             125               1    -25.2253E-06    -19.2102E-06     70.0350E-06     42.1394E-09
             125               2    -24.8358E-06    -19.2427E-06     69.6498E-06     121.842E-09
             125               3    -24.8292E-06    -19.2699E-06     69.6516E-06     166.121E-09
             126               1    -24.9814E-06    -19.2845E-06     69.8318E-06     192.592E-09
             126               2    -25.3747E-06    -19.2317E-06     70.2192E-06     71.9386E-09
             126               3    -25.3817E-06    -19.1958E-06     70.2172E-06     35.5103E-09
             127               1    -24.3388E-06    -19.2611E-06     69.1182E-06     170.969E-09
             127               2    -23.9784E-06    -19.2590E-06     68.7438E-06     217.291E-09
             127               3    -23.9885E-06    -19.2670E-06     68.7455E-06     261.023E-09
             128               1    -24.1436E-06    -19.2785E-06     68.9205E-06     303.621E-09
             128               2    -24.5035E-06    -19.2782E-06     69.2971E-06     254.088E-09
             128               3    -24.4823E-06    -19.2685E-06     69.2952E-06     192.138E-09
             129               1    -23.5078E-06    -19.2476E-06     68.2271E-06     227.201E-09
             129               2    -23.1576E-06    -19.2358E-06     67.8632E-06     245.739E-09
             129               3    -23.1726E-06    -19.2337E-06     67.8645E-06     268.600E-09
             130               1    -23.3255E-06    -19.2412E-06     68.0346E-06     309.422E-09
             130               2    -23.6770E-06    -19.2551E-06     68.4007E-06     302.483E-09
             130               3    -23.6485E-06    -19.2609E-06     68.3991E-06     259.809E-09
             131               1    -22.6979E-06    -19.2164E-06     67.3607E-06     230.614E-09
             131               2    -22.3512E-06    -19.2058E-06     67.0068E-06     234.153E-09
             131               3    -22.3636E-06    -19.2009E-06     67.0080E-06     235.210E-09
             132               1    -22.5112E-06    -19.2065E-06     67.1732E-06     268.517E-09
             132               2    -22.8608E-06    -19.2196E-06     67.5292E-06     278.184E-09
             132               3    -22.8374E-06    -19.2293E-06     67.5279E-06     263.191E-09
             133               1    -21.8973E-06    -19.1881E-06     66.5182E-06     206.812E-09
             133               2    -21.5532E-06    -19.1820E-06     66.1740E-06     203.427E-09
             133               3    -21.5605E-06    -19.1777E-06     66.1750E-06     187.805E-09
             134               1    -21.7021E-06    -19.1825E-06     66.3356E-06     213.793E-09
             134               2    -22.0496E-06    -19.1907E-06     66.6818E-06     227.777E-09
             134               3    -22.0348E-06    -19.1990E-06     66.6807E-06     235.208E-09
             135               1    -21.1048E-06    -19.1693E-06     65.6988E-06     170.430E-09
             135               2    -20.7644E-06    -19.1681E-06     65.3640E-06     163.201E-09
             135               3    -20.7666E-06    -19.1650E-06     65.3649E-06     136.455E-09
             136               1    -20.9024E-06    -19.1694E-06     65.5210E-06     157.264E-09
             136               2    -21.2461E-06    -19.1723E-06     65.8577E-06     171.754E-09
             136               3    -21.2394E-06    -19.1780E-06     65.8568E-06     194.374E-09
             137               1    -20.3225E-06    -19.1609E-06     64.9018E-06     125.735E-09
             137               2    -19.9869E-06    -19.1640E-06     64.5761E-06     113.261E-09
             137               3    -19.9854E-06    -19.1606E-06     64.5769E-06     79.7479E-09
             138               1    -20.1162E-06    -19.1646E-06     64.7287E-06     98.6539E-09
             138               2    -20.4543E-06    -19.1634E-06     65.0562E-06     115.091E-09
             138               3    -20.4537E-06    -19.1673E-06     65.0554E-06     146.740E-09
             139               1    -19.5522E-06    -19.1626E-06     64.1264E-06     66.5131E-09
             139               2    -19.2213E-06    -19.1709E-06     63.8095E-06     41.0879E-09
             139               3    -19.2194E-06    -19.1626E-06     63.8103E-06     2.35816E-09
             140               1    -19.3472E-06    -19.1646E-06     63.9580E-06     24.5806E-09
             140               2    -19.6781E-06    -19.1607E-06     64.2766E-06     51.2636E-09
             140               3    -19.6804E-06    -19.1659E-06     64.2758E-06     87.4724E-09
             141               1    -27.3691E-06    -18.6404E-06     71.9577E-06    -157.406E-09
             141               2    -26.8256E-06    -18.8967E-06     71.5483E-06    -177.854E-09
             141               3    -26.7910E-06    -18.9374E-06     71.5516E-06    -240.340E-09
             142               1    -26.9872E-06    -18.8345E-06     71.7437E-06    -286.834E-09
             142               2    -27.6093E-06    -18.4397E-06     72.1557E-06    -272.556E-09
             142               3    -27.6055E-06    -18.5125E-06     72.1520E-06    -119.860E-09
             143               1    -26.1886E-06    -19.1098E-06     70.9843E-06    -51.9999E-09
             143               2    -25.7661E-06    -19.2012E-06     70.5875E-06     111.301E-09
             143               3    -25.7534E-06    -19.2609E-06     70.5908E-06     194.947E-09
             144               1    -25.9115E-06    -19.2864E-06     70.7772E-06     212.280E-09
             144               2    -26.3475E-06    -19.1162E-06     71.1763E-06    -85.1321E-09
             144               3    -26.3733E-06    -19.0408E-06     71.1726E-06    -116.481E-09
             145               1    -25.2436E-06    -19.2655E-06     70.0402E-06     258.290E-09
             145               2    -24.8827E-06    -19.2654E-06     69.6548E-06     354.829E-09
             145               3    -24.9222E-06    -19.2723E-06     69.6577E-06     438.422E-09
             146               1    -25.1062E-06    -19.2812E-06     69.8387E-06     503.068E-09
             146               2    -25.4575E-06    -19.2805E-06     70.2265E-06     401.818E-09
             146               3    -25.3912E-06    -19.2672E-06     70.2230E-06     264.227E-09
             147               1    -24.4059E-06    -19.2578E-06     69.1229E-06     394.692E-09
             147               2    -24.0535E-06    -19.2391E-06     68.7482E-06     417.216E-09
             147               3    -24.1071E-06    -19.2197E-06     68.7505E-06     449.900E-09
             148               1    -24.2901E-06    -19.2163E-06     68.9261E-06     506.314E-09
             148               2    -24.6433E-06    -19.2427E-06     69.3032E-06     513.987E-09
             148               3    -24.5579E-06    -19.2704E-06     69.3004E-06     434.240E-09
             149               1    -23.5854E-06    -19.2155E-06     68.2310E-06     393.211E-09
             149               2    -23.2304E-06    -19.2002E-06     67.8667E-06     383.117E-09
             149               3    -23.2749E-06    -19.1773E-06     67.8685E-06     376.130E-09
             150               1    -23.4454E-06    -19.1733E-06     68.0389E-06     415.293E-09
             150               2    -23.8076E-06    -19.1918E-06     68.4055E-06     449.914E-09
             150               3    -23.7412E-06    -19.2247E-06     68.4034E-06     434.463E-09
             151               1    -22.7641E-06    -19.1787E-06     67.3639E-06     336.915E-09
             151               2    -22.4087E-06    -19.1701E-06     67.0097E-06     318.291E-09
             151               3    -22.4387E-06    -19.1521E-06     67.0110E-06     288.894E-09
             152               1    -22.5963E-06    -19.1504E-06     67.1765E-06     315.474E-09
             152               2    -22.9599E-06    -19.1597E-06     67.5328E-06     349.180E-09
             152               3    -22.9172E-06    -19.1852E-06     67.5313E-06     370.924E-09
             153               1    -21.9461E-06    -19.1546E-06     66.5208E-06     268.535E-09
             153               2    -21.5936E-06    -19.1517E-06     66.1764E-06     250.147E-09
             153               3    -21.6106E-06    -19.1396E-06     66.1774E-06     209.317E-09
             154               1    -21.7578E-06    -19.1401E-06     66.3382E-06     228.295E-09
             154               2    -22.1173E-06    -19.1430E-06     66.6846E-06     255.403E-09
             154               3    -22.0935E-06    -19.1599E-06     66.6834E-06     295.107E-09
             155               1    -21.1373E-06    -19.1418E-06     65.7010E-06     202.527E-09
             155               2    -20.7902E-06    -19.1430E-06     65.3661E-06     185.952E-09
             155               3    -20.7973E-06    -19.1357E-06     65.3669E-06     139.698E-09
             156               1    -20.9363E-06    -19.1379E-06     65.5232E-06     154.537E-09
             156               2    -21.2891E-06    -19.1364E-06     65.8600E-06     175.788E-09
             156               3    -21.2784E-06    -19.1465E-06     65.8590E-06     223.452E-09
             157               1    -20.3423E-06    -19.1374E-06     64.9037E-06     140.114E-09
             157               2    -20.0030E-06    -19.1399E-06     64.5779E-06     122.615E-09
             157               3    -20.0035E-06    -19.1349E-06     64.5787E-06     75.5864E-09
             158               1    -20.1353E-06    -19.1392E-06     64.7306E-06     89.7848E-09
             158               2    -20.4795E-06    -19.1358E-06     65.0581E-06     107.614E-09
             158               3    -20.4775E-06    -19.1416E-06     65.0574E-06     157.671E-09
             159               1    -19.5660E-06    -19.1360E-06     64.1282E-06     71.7908E-09
             159               2    -19.2371E-06    -19.1361E-06     63.8112E-06     42.7677E-09
             159               3    -19.2359E-06    -19.1272E-06     63.8119E-06     499.900E-12
             160               1    -19.3613E-06    -19.1347E-06     63.9597E-06     21.3097E-09
             160               2    -19.6932E-06    -19.1342E-06     64.2783E-06     43.6369E-09
             160               3    -19.6956E-06    -19.1393E-06     64.2776E-06     90.1701E-09
             161               1    -27.3679E-06    -18.5986E-06     71.9672E-06    -308.820E-09
             161               2    -26.7952E-06    -19.0045E-06     71.5579E-06    -141.836E-09
             161               3    -26.7390E-06    -19.1489E-06     71.5646E-06     66.1746E-09
             162               1    -26.8739E-06    -19.2062E-06     71.7587E-06     54.2914E-09
             162               2    -27.6842E-06    -18.0701E-06     72.1707E-06    -725.808E-09
             162               3    -27.7535E-06    -18.1750E-06     72.1629E-06    -411.807E-09
             163               1    -26.2011E-06    -19.2635E-06     70.9939E-06     284.691E-09
             163               2    -25.8711E-06    -19.2625E-06     70.5968E-06     515.190E-09
             163               3    -25.9996E-06    -19.2587E-06     70.6023E-06     729.048E-09
             164               1    -26.2962E-06    -19.2451E-06     70.7905E-06     899.240E-09
             164               2    -26.5979E-06    -19.2355E-06     71.1908E-06     686.994E-09
             164               3    -26.3327E-06    -19.2409E-06     71.1836E-06     242.453E-09
             165               1    -25.4108E-06    -19.2537E-06     70.0486E-06     628.431E-09
             165               2    -25.0700E-06    -19.2114E-06     69.6625E-06     651.743E-09
             165               3    -25.2254E-06    -19.1419E-06     69.6662E-06     683.520E-09
             166               1    -25.4956E-06    -19.0956E-06     69.8482E-06     773.954E-09
             166               2    -25.8496E-06    -19.1631E-06     70.2376E-06     872.741E-09
             166               3    -25.5795E-06    -19.2740E-06     70.2326E-06     695.596E-09
             167               1    -24.5971E-06    -19.1732E-06     69.1294E-06     598.447E-09
             167               2    -24.2260E-06    -19.1530E-06     68.7539E-06     557.980E-09
             167               3    -24.3371E-06    -19.0927E-06     68.7564E-06     501.191E-09
             168               1    -24.5534E-06    -19.0639E-06     68.9325E-06     532.999E-09
             168               2    -24.9510E-06    -19.0852E-06     69.3108E-06     627.580E-09
             168               3    -24.7900E-06    -19.1732E-06     69.3076E-06     653.234E-09
             169               1    -23.7372E-06    -19.1290E-06     68.2358E-06     475.237E-09
             169               2    -23.3581E-06    -19.1233E-06     67.8709E-06     432.276E-09
             169               3    -23.4259E-06    -19.0834E-06     67.8726E-06     351.080E-09
             170               1    -23.6081E-06    -19.0693E-06     68.0432E-06     361.292E-09
             170               2    -24.0089E-06    -19.0702E-06     68.4106E-06     421.816E-09
             170               3    -23.9226E-06    -19.1236E-06     68.4085E-06     509.017E-09
             171               1    -22.8692E-06    -19.1105E-06     67.3674E-06     357.036E-09
             171               2    -22.4943E-06    -19.1116E-06     67.0128E-06     323.794E-09
             171               3    -22.5319E-06    -19.0877E-06     67.0140E-06     242.083E-09
             172               1    -22.6932E-06    -19.0823E-06     67.1796E-06     246.017E-09
             172               2    -23.0835E-06    -19.0767E-06     67.5364E-06     283.308E-09
             172               3    -23.0399E-06    -19.1067E-06     67.5350E-06     378.594E-09
             173               1    -22.0137E-06    -19.1048E-06     66.5235E-06     260.764E-09
             173               2    -21.6475E-06    -19.1092E-06     66.1788E-06     236.304E-09
             173               3    -21.6657E-06    -19.0958E-06     66.1797E-06     160.920E-09
             174               1    -21.8135E-06    -19.0954E-06     66.3405E-06     164.186E-09
             174               2    -22.1901E-06    -19.0880E-06     66.6872E-06     188.033E-09
             174               3    -22.1710E-06    -19.1037E-06     66.6862E-06     276.225E-09
             175               1    -21.1784E-06    -19.1060E-06     65.7031E-06     182.829E-09
             175               2    -20.8221E-06    -19.1120E-06     65.3681E-06     163.995E-09
             175               3    -20.8287E-06    -19.1048E-06     65.3688E-06     95.4986E-09
             176               1    -20.9675E-06    -19.1070E-06     65.5250E-06     100.258E-09
             176               2    -21.3306E-06    -19.0992E-06     65.8620E-06     117.072E-09
             176               3    -21.3250E-06    -19.1069E-06     65.8612E-06     195.314E-09
             177               1    -20.3655E-06    -19.1107E-06     64.9055E-06     117.242E-09
             177               2    -20.0207E-06    -19.1150E-06     64.5797E-06     101.816E-09
             177               3    -20.0202E-06    -19.1118E-06     64.5804E-06     39.9404E-09
             178               1    -20.1523E-06    -19.1166E-06     64.7323E-06     46.6940E-09
             178               2    -20.5028E-06    -19.1093E-06     65.0599E-06     58.4035E-09
             178               3    -20.5038E-06    -19.1129E-06     65.0592E-06     127.879E-09
             179               1    -19.5794E-06    -19.1109E-06     64.1298E-06     57.9520E-09
             179               2    -19.2518E-06    -19.1038E-06     63.8129E-06     37.9076E-09
             179               3    -19.2489E-06    -19.0997E-06     63.8135E-06    -7.65198E-09
             180               1    -19.3711E-06    -19.1138E-06     63.9612E-06     6.97650E-09
             180               2    -19.7050E-06    -19.1139E-06     64.2799E-06     11.4812E-09
             180               3    -19.7102E-06    -19.1145E-06     64.2793E-06     69.1951E-09
             181               1    -27.4761E-06    -18.9209E-06     71.9892E-06     351.657E-09
             181               2    -27.2444E-06    -19.0569E-06     71.5784E-06     970.340E-09
             181               3    -28.0782E-06    -18.7846E-06     71.5919E-06     1.42978E-06
             182               1    -30.1012E-06    -18.1778E-06     71.7949E-06     2.34475E-06
             182               2    -32.0401E-06    -16.4981E-06     72.2216E-06     2.84631E-06
             182               3    -27.0926E-06    -18.3379E-06     72.1912E-06    -292.924E-09
             183               1    -26.7914E-06    -19.1473E-06     71.0111E-06     1.13116E-06
             183               2    -26.4528E-06    -19.0527E-06     70.6114E-06     1.06062E-06
             183               3    -27.0323E-06    -18.7573E-06     70.6176E-06     767.902E-09
             184               1    -27.6248E-06    -18.5163E-06     70.8077E-06     665.964E-09
             184               2    -28.4350E-06    -18.4965E-06     71.2145E-06     1.25438E-06
             184               3    -27.1364E-06    -19.1425E-06     71.2040E-06     1.30904E-06
             185               1    -25.9413E-06    -18.9884E-06     70.0597E-06     814.195E-09
             185               2    -25.4898E-06    -18.9893E-06     69.6715E-06     679.061E-09
             185               3    -25.7513E-06    -18.8468E-06     69.6746E-06     350.930E-09
             186               1    -26.0191E-06    -18.7894E-06     69.8568E-06     220.812E-09
             186               2    -26.6268E-06    -18.7155E-06     70.2490E-06     351.736E-09
             186               3    -26.3077E-06    -18.9157E-06     70.2449E-06     853.182E-09
             187               1    -24.9283E-06    -18.9815E-06     69.1362E-06     513.016E-09
             187               2    -24.4810E-06    -19.0010E-06     68.7596E-06     438.487E-09
             187               3    -24.5996E-06    -18.9360E-06     68.7612E-06     189.097E-09
             188               1    -24.7975E-06    -18.9172E-06     68.9372E-06     107.960E-09
             188               2    -25.3056E-06    -18.8658E-06     69.3168E-06     140.338E-09
             188               3    -25.1992E-06    -18.9348E-06     69.3148E-06     503.808E-09
             189               1    -23.9299E-06    -19.0090E-06     68.2401E-06     336.352E-09
             189               2    -23.5062E-06    -19.0279E-06     67.8746E-06     298.037E-09
             189               3    -23.5607E-06    -18.9981E-06     67.8756E-06     112.492E-09
             190               1    -23.7301E-06    -18.9925E-06     68.0461E-06     62.3127E-09
             190               2    -24.1840E-06    -18.9579E-06     68.4140E-06     70.4923E-09
             190               3    -24.1434E-06    -18.9847E-06     68.4130E-06     322.019E-09
             191               1    -22.9788E-06    -19.0366E-06     67.3703E-06     229.571E-09
             191               2    -22.5778E-06    -19.0523E-06     67.0154E-06     209.371E-09
             191               3    -22.5997E-06    -19.0400E-06     67.0161E-06     68.3347E-09
             192               1    -22.7519E-06    -19.0412E-06     67.1815E-06     36.8732E-09
             192               2    -23.1705E-06    -19.0168E-06     67.5386E-06     36.3344E-09
             192               3    -23.1596E-06    -19.0253E-06     67.5379E-06     218.843E-09
             193               1    -22.0740E-06    -19.0588E-06     66.5256E-06     158.653E-09
             193               2    -21.6927E-06    -19.0715E-06     66.1808E-06     147.295E-09
             193               3    -21.6970E-06    -19.0683E-06     66.1813E-06     38.7957E-09
             194               1    -21.8369E-06    -19.0737E-06     66.3420E-06     20.0961E-09
             194               2    -22.2293E-06    -19.0558E-06     66.6888E-06     15.8171E-09
             194               3    -22.2344E-06    -19.0550E-06     66.6883E-06     152.978E-09
             195               1    -21.2103E-06    -19.0758E-06     65.7049E-06     105.520E-09
             195               2    -20.8464E-06    -19.0859E-06     65.3697E-06     97.4015E-09
             195               3    -20.8423E-06    -19.0867E-06     65.3702E-06     14.7080E-09
             196               1    -20.9733E-06    -19.0945E-06     65.5263E-06     6.58340E-09
             196               2    -21.3437E-06    -19.0816E-06     65.8633E-06     1.38635E-09
             196               3    -21.3573E-06    -19.0760E-06     65.8629E-06     105.187E-09
             197               1    -20.3834E-06    -19.0885E-06     64.9070E-06     59.8517E-09
             197               2    -20.0347E-06    -19.0964E-06     64.5811E-06     52.4586E-09
             197               3    -20.0298E-06    -19.0970E-06     64.5816E-06    -11.4591E-09
             198               1    -20.1574E-06    -19.1050E-06     64.7335E-06    -8.28289E-09
             198               2    -20.5067E-06    -19.0966E-06     65.0611E-06    -11.7698E-09
             198               3    -20.5211E-06    -19.0906E-06     65.0607E-06     63.8527E-09
             199               1    -19.5887E-06    -19.0962E-06     64.1312E-06     25.2085E-09
             199               2    -19.2601E-06    -19.0853E-06     63.8142E-06     28.8592E-09
             199               3    -19.2556E-06    -19.0928E-06     63.8146E-06    -31.5903E-09
             200               1    -19.3902E-06    -19.1021E-06     63.9623E-06    -19.7584E-09
             200               2    -19.7187E-06    -19.1005E-06     64.2810E-06    -28.8023E-09
             200               3    -19.7186E-06    -19.0997E-06     64.2806E-06     25.0773E-09


  Minimum                           -32.0401E-06    -20.1189E-06     63.8053E-06    -3.60236E-06
      At Element                             182               2              39               2
          Int Pt                               2               3               2               3

  Maximum                           -19.1913E-06    -16.4981E-06     72.2216E-06     2.84631E-06
      At Element                              79             182             182             182
          Int Pt                               3               2               2               2

           Total                    -13.9420E-03    -11.4578E-03     40.6794E-03    -970.738E-09


********************************************************************************
Field Output Report, written Tue Mar 06 14:17:19 2018

Source 1
---------

   ODB: C:/Users/Wagner/Desktop/Projeto FEM/FEM-matlab/Benchmarks/Vaso de Pressao/Job-1.odb
   Step: Step-1
   Frame: Increment      1: Step Time =    1.000

Loc 1 : Nodal values from source 1

Output sorted by column "Node Label".

Field Output reported at nodes for part: PART-1-1

            Node            U.U1            U.U2
           Label          @Loc 1          @Loc 1
-------------------------------------------------
               1     3.62034E-03    -22.3349E-36
               2     3.60484E-03     8.60200E-36
               3     3.59109E-03     5.31267E-36
               4     3.57813E-03     3.42377E-36
               5     3.56575E-03     2.13976E-36
               6     3.55389E-03     1.09465E-36
               7     3.54250E-03     237.819E-39
               8     3.53155E-03    -469.731E-39
               9     3.52103E-03    -1.07048E-36
              10     3.51092E-03    -1.59284E-36
              11     3.50122E-03    -880.025E-39
              12     3.61772E-03    -9.81483E-06
              13     3.60419E-03    -9.31694E-06
              14     3.59088E-03    -9.33859E-06
              15     3.57804E-03    -9.40673E-06
              16     3.56571E-03    -9.46293E-06
              17     3.55386E-03    -9.50510E-06
              18     3.54249E-03    -9.53625E-06
              19     3.53155E-03    -9.55961E-06
              20     3.52103E-03    -9.57790E-06
              21     3.51092E-03    -9.59251E-06
              22     3.50121E-03    -9.60064E-06
              23     3.61717E-03    -19.2035E-06
              24     3.60362E-03    -18.9082E-06
              25     3.59053E-03    -18.8426E-06
              26     3.57785E-03    -18.8958E-06
              27     3.56561E-03    -18.9701E-06
              28     3.55382E-03    -19.0358E-06
              29     3.54247E-03    -19.0877E-06
              30     3.53155E-03    -19.1280E-06
              31     3.52104E-03    -19.1603E-06
              32     3.51093E-03    -19.1872E-06
              33     3.50122E-03    -19.2078E-06
              34     3.61691E-03    -28.5913E-06
              35     3.60334E-03    -28.4466E-06
              36     3.59029E-03    -28.4069E-06
              37     3.57768E-03    -28.4520E-06
              38     3.56551E-03    -28.5271E-06
              39     3.55377E-03    -28.5998E-06
              40     3.54246E-03    -28.6600E-06
              41     3.53155E-03    -28.7082E-06
              42     3.52106E-03    -28.7485E-06
              43     3.51095E-03    -28.7851E-06
              44     3.50124E-03    -28.8193E-06
              45     3.61680E-03    -37.9730E-06
              46     3.60322E-03    -37.9445E-06
              47     3.59017E-03    -37.9719E-06
              48     3.57760E-03    -38.0405E-06
              49     3.56547E-03    -38.1209E-06
              50     3.55377E-03    -38.1933E-06
              51     3.54247E-03    -38.2520E-06
              52     3.53159E-03    -38.2997E-06
              53     3.52110E-03    -38.3420E-06
              54     3.51100E-03    -38.3848E-06
              55     3.50128E-03    -38.4330E-06
              56     3.61680E-03    -47.3405E-06
              57     3.60322E-03    -47.4206E-06
              58     3.59017E-03    -47.5334E-06
              59     3.57761E-03    -47.6455E-06
              60     3.56550E-03    -47.7378E-06
              61     3.55381E-03    -47.8066E-06
              62     3.54253E-03    -47.8573E-06
              63     3.53165E-03    -47.8980E-06
              64     3.52116E-03    -47.9372E-06
              65     3.51106E-03    -47.9829E-06
              66     3.50135E-03    -48.0436E-06
              67     3.61691E-03    -56.6822E-06
              68     3.60332E-03    -56.8861E-06
              69     3.59028E-03    -57.1028E-06
              70     3.57773E-03    -57.2658E-06
              71     3.56562E-03    -57.3681E-06
              72     3.55393E-03    -57.4282E-06
              73     3.54264E-03    -57.4658E-06
              74     3.53175E-03    -57.4958E-06
              75     3.52125E-03    -57.5291E-06
              76     3.51115E-03    -57.5748E-06
              77     3.50143E-03    -57.6441E-06
              78     3.61714E-03    -65.9739E-06
              79     3.60354E-03    -66.3542E-06
              80     3.59051E-03    -66.6978E-06
              81     3.57796E-03    -66.9016E-06
              82     3.56582E-03    -66.9999E-06
              83     3.55410E-03    -67.0434E-06
              84     3.54278E-03    -67.0652E-06
              85     3.53187E-03    -67.0844E-06
              86     3.52136E-03    -67.1119E-06
              87     3.51124E-03    -67.1562E-06
              88     3.50152E-03    -67.2282E-06
              89     3.61756E-03    -75.1522E-06
              90     3.60396E-03    -75.8588E-06
              91     3.59094E-03    -76.3335E-06
              92     3.57832E-03    -76.5366E-06
              93     3.56610E-03    -76.6099E-06
              94     3.55430E-03    -76.6333E-06
              95     3.54294E-03    -76.6428E-06
              96     3.53200E-03    -76.6557E-06
              97     3.52147E-03    -76.6811E-06
              98     3.51134E-03    -76.7249E-06
              99     3.50161E-03    -76.7933E-06
             100     3.61840E-03    -84.0326E-06
             101     3.60484E-03    -85.4767E-06
             102     3.59160E-03    -85.9633E-06
             103     3.57875E-03    -86.1120E-06
             104     3.56638E-03    -86.1629E-06
             105     3.55449E-03    -86.1807E-06
             106     3.54308E-03    -86.1909E-06
             107     3.53210E-03    -86.2065E-06
             108     3.52156E-03    -86.2357E-06
             109     3.51142E-03    -86.2821E-06
             110     3.50168E-03    -86.3427E-06
             111     3.62257E-03    -92.6149E-06
             112     3.60637E-03    -94.9371E-06
             113     3.59221E-03    -95.3755E-06
             114     3.57904E-03    -95.5594E-06
             115     3.56654E-03    -95.6450E-06
             116     3.55459E-03    -95.6879E-06
             117     3.54315E-03    -95.7155E-06
             118     3.53216E-03    -95.7433E-06
             119     3.52162E-03    -95.7807E-06
             120     3.51148E-03    -95.8318E-06
             121     3.50173E-03    -95.8861E-06
             122     3.61223E-03    -2.12233E-36
             123     3.60461E-03    -4.55481E-06
             124     3.61140E-03    -4.53850E-06
             125     3.61092E-03    -9.41628E-06
             126     3.61833E-03    -5.24979E-06
             127     3.59785E-03     4.85822E-36
             128     3.59106E-03    -4.64997E-06
             129     3.59771E-03    -4.59825E-06
             130     3.59750E-03    -9.30877E-06
             131     3.58454E-03     3.60721E-36
             132     3.57814E-03    -4.69938E-06
             133     3.58450E-03    -4.67026E-06
             134     3.58441E-03    -9.38317E-06
             135     3.57188E-03     2.37746E-36
             136     3.56577E-03    -4.73052E-06
             137     3.57187E-03    -4.71040E-06
             138     3.57182E-03    -9.44475E-06
             139     3.55977E-03     1.29456E-36
             140     3.55391E-03    -4.75251E-06
             141     3.55976E-03    -4.73776E-06
             142     3.55974E-03    -9.49170E-06
             143     3.54814E-03     384.984E-39
             144     3.54252E-03    -4.76846E-06
             145     3.54814E-03    -4.75738E-06
             146     3.54813E-03    -9.52669E-06
             147     3.53698E-03    -366.834E-39
             148     3.53157E-03    -4.78034E-06
             149     3.53698E-03    -4.77171E-06
             150     3.53697E-03    -9.55272E-06
             151     3.52625E-03    -999.211E-39
             152     3.52106E-03    -4.78963E-06
             153     3.52625E-03    -4.78256E-06
             154     3.52625E-03    -9.57268E-06
             155     3.51594E-03    -1.54587E-36
             156     3.51095E-03    -4.79710E-06
             157     3.51594E-03    -4.79127E-06
             158     3.51594E-03    -9.58868E-06
             159     3.50603E-03    -1.95090E-36
             160     3.50123E-03    -4.79933E-06
             161     3.50603E-03    -4.79829E-06
             162     3.50603E-03    -9.60093E-06
             163     3.60387E-03    -14.1190E-06
             164     3.61056E-03    -14.2314E-06
             165     3.61034E-03    -19.0244E-06
             166     3.61743E-03    -14.5236E-06
             167     3.59072E-03    -14.0773E-06
             168     3.59723E-03    -14.0651E-06
             169     3.59704E-03    -18.8493E-06
             170     3.57797E-03    -14.1440E-06
             171     3.58427E-03    -14.1052E-06
             172     3.58415E-03    -18.8677E-06
             173     3.56569E-03    -14.2132E-06
             174     3.57175E-03    -14.1771E-06
             175     3.57168E-03    -18.9399E-06
             176     3.55387E-03    -14.2691E-06
             177     3.55970E-03    -14.2403E-06
             178     3.55967E-03    -19.0109E-06
             179     3.54250E-03    -14.3118E-06
             180     3.54811E-03    -14.2897E-06
             181     3.54810E-03    -19.0688E-06
             182     3.53157E-03    -14.3443E-06
             183     3.53697E-03    -14.3271E-06
             184     3.53696E-03    -19.1136E-06
             185     3.52106E-03    -14.3700E-06
             186     3.52625E-03    -14.3561E-06
             187     3.52625E-03    -19.1487E-06
             188     3.51095E-03    -14.3908E-06
             189     3.51594E-03    -14.3795E-06
             190     3.51594E-03    -19.1778E-06
             191     3.50123E-03    -14.4050E-06
             192     3.50603E-03    -14.3976E-06
             193     3.50603E-03    -19.2018E-06
             194     3.60348E-03    -23.6891E-06
             195     3.61018E-03    -23.7641E-06
             196     3.61007E-03    -28.5117E-06
             197     3.61705E-03    -23.9047E-06
             198     3.59041E-03    -23.6262E-06
             199     3.59688E-03    -23.6303E-06
             200     3.59677E-03    -28.4147E-06
             201     3.57778E-03    -23.6708E-06
             202     3.58403E-03    -23.6381E-06
             203     3.58394E-03    -28.4265E-06
             204     3.56558E-03    -23.7456E-06
             205     3.57161E-03    -23.7057E-06
             206     3.57155E-03    -28.4938E-06
             207     3.55382E-03    -23.8159E-06
             208     3.55963E-03    -23.7808E-06
             209     3.55960E-03    -28.5702E-06
             210     3.54248E-03    -23.8730E-06
             211     3.54808E-03    -23.8449E-06
             212     3.54807E-03    -28.6364E-06
             213     3.53157E-03    -23.9182E-06
             214     3.53696E-03    -23.8957E-06
             215     3.53696E-03    -28.6895E-06
             216     3.52107E-03    -23.9551E-06
             217     3.52626E-03    -23.9362E-06
             218     3.52626E-03    -28.7326E-06
             219     3.51096E-03    -23.9872E-06
             220     3.51595E-03    -23.9703E-06
             221     3.51596E-03    -28.7704E-06
             222     3.50125E-03    -24.0145E-06
             223     3.50605E-03    -24.0001E-06
             224     3.50606E-03    -28.8058E-06
             225     3.60329E-03    -33.2042E-06
             226     3.61000E-03    -33.2277E-06
             227     3.60996E-03    -37.9570E-06
             228     3.61687E-03    -33.2888E-06
             229     3.59024E-03    -33.1938E-06
             230     3.59669E-03    -33.1809E-06
             231     3.59665E-03    -37.9556E-06
             232     3.57765E-03    -33.2464E-06
             233     3.58388E-03    -33.2108E-06
             234     3.58384E-03    -38.0077E-06
             235     3.56551E-03    -33.3225E-06
             236     3.57151E-03    -33.2820E-06
             237     3.57149E-03    -38.0857E-06
             238     3.55379E-03    -33.3951E-06
             239     3.55958E-03    -33.3594E-06
             240     3.55958E-03    -38.1633E-06
             241     3.54248E-03    -33.4553E-06
             242     3.54807E-03    -33.4263E-06
             243     3.54808E-03    -38.2284E-06
             244     3.53159E-03    -33.5040E-06
             245     3.53697E-03    -33.4802E-06
             246     3.53699E-03    -38.2804E-06
             247     3.52110E-03    -33.5460E-06
             248     3.52628E-03    -33.5247E-06
             249     3.52630E-03    -38.3242E-06
             250     3.51099E-03    -33.5863E-06
             251     3.51598E-03    -33.5650E-06
             252     3.51601E-03    -38.3658E-06
             253     3.50128E-03    -33.6278E-06
             254     3.50608E-03    -33.6052E-06
             255     3.50610E-03    -38.4110E-06
             256     3.60324E-03    -42.6896E-06
             257     3.60994E-03    -42.6610E-06
             258     3.60995E-03    -47.3795E-06
             259     3.61682E-03    -42.6641E-06
             260     3.59018E-03    -42.7565E-06
             261     3.59663E-03    -42.7111E-06
             262     3.59664E-03    -47.4816E-06
             263     3.57762E-03    -42.8438E-06
             264     3.58383E-03    -42.7951E-06
             265     3.58384E-03    -47.5973E-06
             266     3.56550E-03    -42.9287E-06
             267     3.57149E-03    -42.8862E-06
             268     3.57151E-03    -47.6996E-06
             269     3.55380E-03    -42.9993E-06
             270     3.55959E-03    -42.9659E-06
             271     3.55962E-03    -47.7788E-06
             272     3.54252E-03    -43.0545E-06
             273     3.54810E-03    -43.0287E-06
             274     3.54813E-03    -47.8369E-06
             275     3.53164E-03    -43.0994E-06
             276     3.53702E-03    -43.0777E-06
             277     3.53705E-03    -47.8811E-06
             278     3.52115E-03    -43.1407E-06
             279     3.52633E-03    -43.1195E-06
             280     3.52637E-03    -47.9198E-06
             281     3.51105E-03    -43.1857E-06
             282     3.51604E-03    -43.1612E-06
             283     3.51607E-03    -47.9611E-06
             284     3.50133E-03    -43.2409E-06
             285     3.50613E-03    -43.2097E-06
             286     3.50616E-03    -48.0131E-06
             287     3.60328E-03    -52.1599E-06
             288     3.60999E-03    -52.0727E-06
             289     3.61006E-03    -56.7821E-06
             290     3.61687E-03    -52.0212E-06
             291     3.59024E-03    -52.3201E-06
             292     3.59668E-03    -52.2333E-06
             293     3.59675E-03    -57.0080E-06
             294     3.57768E-03    -52.4556E-06
             295     3.58388E-03    -52.3894E-06
             296     3.58396E-03    -57.1999E-06
             297     3.56557E-03    -52.5527E-06
             298     3.57156E-03    -52.5085E-06
             299     3.57163E-03    -57.3282E-06
             300     3.55388E-03    -52.6176E-06
             301     3.55967E-03    -52.5891E-06
             302     3.55973E-03    -57.4049E-06
             303     3.54260E-03    -52.6623E-06
             304     3.54818E-03    -52.6423E-06
             305     3.54824E-03    -57.4508E-06
             306     3.53172E-03    -52.6982E-06
             307     3.53710E-03    -52.6808E-06
             308     3.53715E-03    -57.4829E-06
             309     3.52123E-03    -52.7348E-06
             310     3.52641E-03    -52.7154E-06
             311     3.52646E-03    -57.5134E-06
             312     3.51112E-03    -52.7811E-06
             313     3.51612E-03    -52.7551E-06
             314     3.51616E-03    -57.5517E-06
             315     3.50140E-03    -52.8473E-06
             316     3.50621E-03    -52.8090E-06
             317     3.50625E-03    -57.6073E-06
             318     3.60344E-03    -61.6261E-06
             319     3.61015E-03    -61.4614E-06
             320     3.61028E-03    -66.1629E-06
             321     3.61703E-03    -61.3449E-06
             322     3.59040E-03    -61.8992E-06
             323     3.59684E-03    -61.7650E-06
             324     3.59698E-03    -66.5562E-06
             325     3.57785E-03    -62.0826E-06
             326     3.58406E-03    -62.0025E-06
             327     3.58419E-03    -66.8236E-06
             328     3.56573E-03    -62.1845E-06
             329     3.57173E-03    -62.1434E-06
             330     3.57185E-03    -66.9631E-06
             331     3.55403E-03    -62.2373E-06
             332     3.55982E-03    -62.2168E-06
             333     3.55992E-03    -67.0271E-06
             334     3.54273E-03    -62.2675E-06
             335     3.54832E-03    -62.2549E-06
             336     3.54839E-03    -67.0565E-06
             337     3.53183E-03    -62.2923E-06
             338     3.53722E-03    -62.2799E-06
             339     3.53728E-03    -67.0756E-06
             340     3.52133E-03    -62.3228E-06
             341     3.52652E-03    -62.3057E-06
             342     3.52657E-03    -67.0980E-06
             343     3.51122E-03    -62.3681E-06
             344     3.51621E-03    -62.3419E-06
             345     3.51626E-03    -67.1330E-06
             346     3.50149E-03    -62.4400E-06
             347     3.50630E-03    -62.3980E-06
             348     3.50634E-03    -67.1891E-06
             349     3.60375E-03    -71.1078E-06
             350     3.61045E-03    -70.8230E-06
             351     3.61070E-03    -75.5317E-06
             352     3.61735E-03    -70.6031E-06
             353     3.59072E-03    -71.5108E-06
             354     3.59716E-03    -71.3336E-06
             355     3.59741E-03    -76.1552E-06
             356     3.57814E-03    -71.7191E-06
             357     3.58437E-03    -71.6400E-06
             358     3.58458E-03    -76.4603E-06
             359     3.56597E-03    -71.8078E-06
             360     3.57200E-03    -71.7775E-06
             361     3.57216E-03    -76.5816E-06
             362     3.55422E-03    -71.8419E-06
             363     3.56004E-03    -71.8310E-06
             364     3.56015E-03    -76.6243E-06
             365     3.54288E-03    -71.8574E-06
             366     3.54849E-03    -71.8512E-06
             367     3.54857E-03    -76.6388E-06
             368     3.53195E-03    -71.8730E-06
             369     3.53736E-03    -71.8642E-06
             370     3.53742E-03    -76.6492E-06
             371     3.52144E-03    -71.8992E-06
             372     3.52663E-03    -71.8835E-06
             373     3.52669E-03    -76.6680E-06
             374     3.51132E-03    -71.9432E-06
             375     3.51632E-03    -71.9174E-06
             376     3.51636E-03    -76.7022E-06
             377     3.50158E-03    -72.0142E-06
             378     3.50639E-03    -71.9731E-06
             379     3.50643E-03    -76.7568E-06
             380     3.60433E-03    -80.6515E-06
             381     3.61102E-03    -80.1813E-06
             382     3.61160E-03    -84.9829E-06
             383     3.61795E-03    -79.7197E-06
             384     3.59125E-03    -81.1483E-06
             385     3.59775E-03    -80.9711E-06
             386     3.59818E-03    -85.7824E-06
             387     3.57855E-03    -81.3313E-06
             388     3.58485E-03    -81.2737E-06
             389     3.58511E-03    -86.0476E-06
             390     3.56627E-03    -81.3930E-06
             391     3.57235E-03    -81.3749E-06
             392     3.57250E-03    -86.1409E-06
             393     3.55443E-03    -81.4122E-06
             394     3.56028E-03    -81.4065E-06
             395     3.56038E-03    -86.1739E-06
             396     3.54304E-03    -81.4208E-06
             397     3.54867E-03    -81.4164E-06
             398     3.54873E-03    -86.1870E-06
             399     3.53208E-03    -81.4344E-06
             400     3.53749E-03    -81.4254E-06
             401     3.53754E-03    -86.1993E-06
             402     3.52154E-03    -81.4612E-06
             403     3.52674E-03    -81.4445E-06
             404     3.52678E-03    -86.2212E-06
             405     3.51141E-03    -81.5058E-06
             406     3.51641E-03    -81.4798E-06
             407     3.51645E-03    -86.2590E-06
             408     3.50167E-03    -81.5702E-06
             409     3.50648E-03    -81.5345E-06
             410     3.50651E-03    -86.3130E-06
             411     3.60552E-03    -90.2383E-06
             412     3.61254E-03    -89.7131E-06
             413     3.61378E-03    -94.2575E-06
             414     3.61931E-03    -88.3710E-06
             415     3.59198E-03    -90.6961E-06
             416     3.59874E-03    -90.5692E-06
             417     3.59906E-03    -95.1983E-06
             418     3.57896E-03    -90.8483E-06
             419     3.58540E-03    -90.7947E-06
             420     3.58553E-03    -95.4921E-06
             421     3.56651E-03    -90.9108E-06
             422     3.57266E-03    -90.8862E-06
             423     3.57272E-03    -95.6155E-06
             424     3.55459E-03    -90.9386E-06
             425     3.56048E-03    -90.9261E-06
             426     3.56051E-03    -95.6742E-06
             427     3.54315E-03    -90.9562E-06
             428     3.54880E-03    -90.9462E-06
             429     3.54882E-03    -95.7065E-06
             430     3.53216E-03    -90.9772E-06
             431     3.53759E-03    -90.9640E-06
             432     3.53761E-03    -95.7324E-06
             433     3.52161E-03    -91.0102E-06
             434     3.52683E-03    -90.9902E-06
             435     3.52685E-03    -95.7638E-06
             436     3.51148E-03    -91.0589E-06
             437     3.51648E-03    -91.0311E-06
             438     3.51651E-03    -95.8074E-06
             439     3.50173E-03    -91.1139E-06
             440     3.50655E-03    -91.0870E-06
             441     3.50657E-03    -95.8626E-06


  Minimum            3.50121E-03    -95.8861E-06
         At Node              22             121

  Maximum            3.62257E-03     8.60200E-36
         At Node             111               2

           Total         1.56822    -21.0546E-03


********************************************************************************
Field Output Report, written Tue Mar 06 14:17:22 2018

Source 1
---------

   ODB: C:/Users/Wagner/Desktop/Projeto FEM/FEM-matlab/Benchmarks/Vaso de Pressao/Job-1.odb
   Step: Step-1
   Frame: Increment      1: Step Time =    1.000

Loc 1 : Nodal values from source 1

Output sorted by column "Node Label".

Field Output reported at nodes for part: PART-1-1

            Node            U.U1            U.U2
           Label          @Loc 1          @Loc 1
-------------------------------------------------
               1     3.62034E-03    -22.3349E-36
               2     3.60484E-03     8.60200E-36
               3     3.59109E-03     5.31267E-36
               4     3.57813E-03     3.42377E-36
               5     3.56575E-03     2.13976E-36
               6     3.55389E-03     1.09465E-36
               7     3.54250E-03     237.819E-39
               8     3.53155E-03    -469.731E-39
               9     3.52103E-03    -1.07048E-36
              10     3.51092E-03    -1.59284E-36
              11     3.50122E-03    -880.025E-39
              12     3.61772E-03    -9.81483E-06
              13     3.60419E-03    -9.31694E-06
              14     3.59088E-03    -9.33859E-06
              15     3.57804E-03    -9.40673E-06
              16     3.56571E-03    -9.46293E-06
              17     3.55386E-03    -9.50510E-06
              18     3.54249E-03    -9.53625E-06
              19     3.53155E-03    -9.55961E-06
              20     3.52103E-03    -9.57790E-06
              21     3.51092E-03    -9.59251E-06
              22     3.50121E-03    -9.60064E-06
              23     3.61717E-03    -19.2035E-06
              24     3.60362E-03    -18.9082E-06
              25     3.59053E-03    -18.8426E-06
              26     3.57785E-03    -18.8958E-06
              27     3.56561E-03    -18.9701E-06
              28     3.55382E-03    -19.0358E-06
              29     3.54247E-03    -19.0877E-06
              30     3.53155E-03    -19.1280E-06
              31     3.52104E-03    -19.1603E-06
              32     3.51093E-03    -19.1872E-06
              33     3.50122E-03    -19.2078E-06
              34     3.61691E-03    -28.5913E-06
              35     3.60334E-03    -28.4466E-06
              36     3.59029E-03    -28.4069E-06
              37     3.57768E-03    -28.4520E-06
              38     3.56551E-03    -28.5271E-06
              39     3.55377E-03    -28.5998E-06
              40     3.54246E-03    -28.6600E-06
              41     3.53155E-03    -28.7082E-06
              42     3.52106E-03    -28.7485E-06
              43     3.51095E-03    -28.7851E-06
              44     3.50124E-03    -28.8193E-06
              45     3.61680E-03    -37.9730E-06
              46     3.60322E-03    -37.9445E-06
              47     3.59017E-03    -37.9719E-06
              48     3.57760E-03    -38.0405E-06
              49     3.56547E-03    -38.1209E-06
              50     3.55377E-03    -38.1933E-06
              51     3.54247E-03    -38.2520E-06
              52     3.53159E-03    -38.2997E-06
              53     3.52110E-03    -38.3420E-06
              54     3.51100E-03    -38.3848E-06
              55     3.50128E-03    -38.4330E-06
              56     3.61680E-03    -47.3405E-06
              57     3.60322E-03    -47.4206E-06
              58     3.59017E-03    -47.5334E-06
              59     3.57761E-03    -47.6455E-06
              60     3.56550E-03    -47.7378E-06
              61     3.55381E-03    -47.8066E-06
              62     3.54253E-03    -47.8573E-06
              63     3.53165E-03    -47.8980E-06
              64     3.52116E-03    -47.9372E-06
              65     3.51106E-03    -47.9829E-06
              66     3.50135E-03    -48.0436E-06
              67     3.61691E-03    -56.6822E-06
              68     3.60332E-03    -56.8861E-06
              69     3.59028E-03    -57.1028E-06
              70     3.57773E-03    -57.2658E-06
              71     3.56562E-03    -57.3681E-06
              72     3.55393E-03    -57.4282E-06
              73     3.54264E-03    -57.4658E-06
              74     3.53175E-03    -57.4958E-06
              75     3.52125E-03    -57.5291E-06
              76     3.51115E-03    -57.5748E-06
              77     3.50143E-03    -57.6441E-06
              78     3.61714E-03    -65.9739E-06
              79     3.60354E-03    -66.3542E-06
              80     3.59051E-03    -66.6978E-06
              81     3.57796E-03    -66.9016E-06
              82     3.56582E-03    -66.9999E-06
              83     3.55410E-03    -67.0434E-06
              84     3.54278E-03    -67.0652E-06
              85     3.53187E-03    -67.0844E-06
              86     3.52136E-03    -67.1119E-06
              87     3.51124E-03    -67.1562E-06
              88     3.50152E-03    -67.2282E-06
              89     3.61756E-03    -75.1522E-06
              90     3.60396E-03    -75.8588E-06
              91     3.59094E-03    -76.3335E-06
              92     3.57832E-03    -76.5366E-06
              93     3.56610E-03    -76.6099E-06
              94     3.55430E-03    -76.6333E-06
              95     3.54294E-03    -76.6428E-06
              96     3.53200E-03    -76.6557E-06
              97     3.52147E-03    -76.6811E-06
              98     3.51134E-03    -76.7249E-06
              99     3.50161E-03    -76.7933E-06
             100     3.61840E-03    -84.0326E-06
             101     3.60484E-03    -85.4767E-06
             102     3.59160E-03    -85.9633E-06
             103     3.57875E-03    -86.1120E-06
             104     3.56638E-03    -86.1629E-06
             105     3.55449E-03    -86.1807E-06
             106     3.54308E-03    -86.1909E-06
             107     3.53210E-03    -86.2065E-06
             108     3.52156E-03    -86.2357E-06
             109     3.51142E-03    -86.2821E-06
             110     3.50168E-03    -86.3427E-06
             111     3.62257E-03    -92.6149E-06
             112     3.60637E-03    -94.9371E-06
             113     3.59221E-03    -95.3755E-06
             114     3.57904E-03    -95.5594E-06
             115     3.56654E-03    -95.6450E-06
             116     3.55459E-03    -95.6879E-06
             117     3.54315E-03    -95.7155E-06
             118     3.53216E-03    -95.7433E-06
             119     3.52162E-03    -95.7807E-06
             120     3.51148E-03    -95.8318E-06
             121     3.50173E-03    -95.8861E-06
             122     3.61223E-03    -2.12233E-36
             123     3.60461E-03    -4.55481E-06
             124     3.61140E-03    -4.53850E-06
             125     3.61092E-03    -9.41628E-06
             126     3.61833E-03    -5.24979E-06
             127     3.59785E-03     4.85822E-36
             128     3.59106E-03    -4.64997E-06
             129     3.59771E-03    -4.59825E-06
             130     3.59750E-03    -9.30877E-06
             131     3.58454E-03     3.60721E-36
             132     3.57814E-03    -4.69938E-06
             133     3.58450E-03    -4.67026E-06
             134     3.58441E-03    -9.38317E-06
             135     3.57188E-03     2.37746E-36
             136     3.56577E-03    -4.73052E-06
             137     3.57187E-03    -4.71040E-06
             138     3.57182E-03    -9.44475E-06
             139     3.55977E-03     1.29456E-36
             140     3.55391E-03    -4.75251E-06
             141     3.55976E-03    -4.73776E-06
             142     3.55974E-03    -9.49170E-06
             143     3.54814E-03     384.984E-39
             144     3.54252E-03    -4.76846E-06
             145     3.54814E-03    -4.75738E-06
             146     3.54813E-03    -9.52669E-06
             147     3.53698E-03    -366.834E-39
             148     3.53157E-03    -4.78034E-06
             149     3.53698E-03    -4.77171E-06
             150     3.53697E-03    -9.55272E-06
             151     3.52625E-03    -999.211E-39
             152     3.52106E-03    -4.78963E-06
             153     3.52625E-03    -4.78256E-06
             154     3.52625E-03    -9.57268E-06
             155     3.51594E-03    -1.54587E-36
             156     3.51095E-03    -4.79710E-06
             157     3.51594E-03    -4.79127E-06
             158     3.51594E-03    -9.58868E-06
             159     3.50603E-03    -1.95090E-36
             160     3.50123E-03    -4.79933E-06
             161     3.50603E-03    -4.79829E-06
             162     3.50603E-03    -9.60093E-06
             163     3.60387E-03    -14.1190E-06
             164     3.61056E-03    -14.2314E-06
             165     3.61034E-03    -19.0244E-06
             166     3.61743E-03    -14.5236E-06
             167     3.59072E-03    -14.0773E-06
             168     3.59723E-03    -14.0651E-06
             169     3.59704E-03    -18.8493E-06
             170     3.57797E-03    -14.1440E-06
             171     3.58427E-03    -14.1052E-06
             172     3.58415E-03    -18.8677E-06
             173     3.56569E-03    -14.2132E-06
             174     3.57175E-03    -14.1771E-06
             175     3.57168E-03    -18.9399E-06
             176     3.55387E-03    -14.2691E-06
             177     3.55970E-03    -14.2403E-06
             178     3.55967E-03    -19.0109E-06
             179     3.54250E-03    -14.3118E-06
             180     3.54811E-03    -14.2897E-06
             181     3.54810E-03    -19.0688E-06
             182     3.53157E-03    -14.3443E-06
             183     3.53697E-03    -14.3271E-06
             184     3.53696E-03    -19.1136E-06
             185     3.52106E-03    -14.3700E-06
             186     3.52625E-03    -14.3561E-06
             187     3.52625E-03    -19.1487E-06
             188     3.51095E-03    -14.3908E-06
             189     3.51594E-03    -14.3795E-06
             190     3.51594E-03    -19.1778E-06
             191     3.50123E-03    -14.4050E-06
             192     3.50603E-03    -14.3976E-06
             193     3.50603E-03    -19.2018E-06
             194     3.60348E-03    -23.6891E-06
             195     3.61018E-03    -23.7641E-06
             196     3.61007E-03    -28.5117E-06
             197     3.61705E-03    -23.9047E-06
             198     3.59041E-03    -23.6262E-06
             199     3.59688E-03    -23.6303E-06
             200     3.59677E-03    -28.4147E-06
             201     3.57778E-03    -23.6708E-06
             202     3.58403E-03    -23.6381E-06
             203     3.58394E-03    -28.4265E-06
             204     3.56558E-03    -23.7456E-06
             205     3.57161E-03    -23.7057E-06
             206     3.57155E-03    -28.4938E-06
             207     3.55382E-03    -23.8159E-06
             208     3.55963E-03    -23.7808E-06
             209     3.55960E-03    -28.5702E-06
             210     3.54248E-03    -23.8730E-06
             211     3.54808E-03    -23.8449E-06
             212     3.54807E-03    -28.6364E-06
             213     3.53157E-03    -23.9182E-06
             214     3.53696E-03    -23.8957E-06
             215     3.53696E-03    -28.6895E-06
             216     3.52107E-03    -23.9551E-06
             217     3.52626E-03    -23.9362E-06
             218     3.52626E-03    -28.7326E-06
             219     3.51096E-03    -23.9872E-06
             220     3.51595E-03    -23.9703E-06
             221     3.51596E-03    -28.7704E-06
             222     3.50125E-03    -24.0145E-06
             223     3.50605E-03    -24.0001E-06
             224     3.50606E-03    -28.8058E-06
             225     3.60329E-03    -33.2042E-06
             226     3.61000E-03    -33.2277E-06
             227     3.60996E-03    -37.9570E-06
             228     3.61687E-03    -33.2888E-06
             229     3.59024E-03    -33.1938E-06
             230     3.59669E-03    -33.1809E-06
             231     3.59665E-03    -37.9556E-06
             232     3.57765E-03    -33.2464E-06
             233     3.58388E-03    -33.2108E-06
             234     3.58384E-03    -38.0077E-06
             235     3.56551E-03    -33.3225E-06
             236     3.57151E-03    -33.2820E-06
             237     3.57149E-03    -38.0857E-06
             238     3.55379E-03    -33.3951E-06
             239     3.55958E-03    -33.3594E-06
             240     3.55958E-03    -38.1633E-06
             241     3.54248E-03    -33.4553E-06
             242     3.54807E-03    -33.4263E-06
             243     3.54808E-03    -38.2284E-06
             244     3.53159E-03    -33.5040E-06
             245     3.53697E-03    -33.4802E-06
             246     3.53699E-03    -38.2804E-06
             247     3.52110E-03    -33.5460E-06
             248     3.52628E-03    -33.5247E-06
             249     3.52630E-03    -38.3242E-06
             250     3.51099E-03    -33.5863E-06
             251     3.51598E-03    -33.5650E-06
             252     3.51601E-03    -38.3658E-06
             253     3.50128E-03    -33.6278E-06
             254     3.50608E-03    -33.6052E-06
             255     3.50610E-03    -38.4110E-06
             256     3.60324E-03    -42.6896E-06
             257     3.60994E-03    -42.6610E-06
             258     3.60995E-03    -47.3795E-06
             259     3.61682E-03    -42.6641E-06
             260     3.59018E-03    -42.7565E-06
             261     3.59663E-03    -42.7111E-06
             262     3.59664E-03    -47.4816E-06
             263     3.57762E-03    -42.8438E-06
             264     3.58383E-03    -42.7951E-06
             265     3.58384E-03    -47.5973E-06
             266     3.56550E-03    -42.9287E-06
             267     3.57149E-03    -42.8862E-06
             268     3.57151E-03    -47.6996E-06
             269     3.55380E-03    -42.9993E-06
             270     3.55959E-03    -42.9659E-06
             271     3.55962E-03    -47.7788E-06
             272     3.54252E-03    -43.0545E-06
             273     3.54810E-03    -43.0287E-06
             274     3.54813E-03    -47.8369E-06
             275     3.53164E-03    -43.0994E-06
             276     3.53702E-03    -43.0777E-06
             277     3.53705E-03    -47.8811E-06
             278     3.52115E-03    -43.1407E-06
             279     3.52633E-03    -43.1195E-06
             280     3.52637E-03    -47.9198E-06
             281     3.51105E-03    -43.1857E-06
             282     3.51604E-03    -43.1612E-06
             283     3.51607E-03    -47.9611E-06
             284     3.50133E-03    -43.2409E-06
             285     3.50613E-03    -43.2097E-06
             286     3.50616E-03    -48.0131E-06
             287     3.60328E-03    -52.1599E-06
             288     3.60999E-03    -52.0727E-06
             289     3.61006E-03    -56.7821E-06
             290     3.61687E-03    -52.0212E-06
             291     3.59024E-03    -52.3201E-06
             292     3.59668E-03    -52.2333E-06
             293     3.59675E-03    -57.0080E-06
             294     3.57768E-03    -52.4556E-06
             295     3.58388E-03    -52.3894E-06
             296     3.58396E-03    -57.1999E-06
             297     3.56557E-03    -52.5527E-06
             298     3.57156E-03    -52.5085E-06
             299     3.57163E-03    -57.3282E-06
             300     3.55388E-03    -52.6176E-06
             301     3.55967E-03    -52.5891E-06
             302     3.55973E-03    -57.4049E-06
             303     3.54260E-03    -52.6623E-06
             304     3.54818E-03    -52.6423E-06
             305     3.54824E-03    -57.4508E-06
             306     3.53172E-03    -52.6982E-06
             307     3.53710E-03    -52.6808E-06
             308     3.53715E-03    -57.4829E-06
             309     3.52123E-03    -52.7348E-06
             310     3.52641E-03    -52.7154E-06
             311     3.52646E-03    -57.5134E-06
             312     3.51112E-03    -52.7811E-06
             313     3.51612E-03    -52.7551E-06
             314     3.51616E-03    -57.5517E-06
             315     3.50140E-03    -52.8473E-06
             316     3.50621E-03    -52.8090E-06
             317     3.50625E-03    -57.6073E-06
             318     3.60344E-03    -61.6261E-06
             319     3.61015E-03    -61.4614E-06
             320     3.61028E-03    -66.1629E-06
             321     3.61703E-03    -61.3449E-06
             322     3.59040E-03    -61.8992E-06
             323     3.59684E-03    -61.7650E-06
             324     3.59698E-03    -66.5562E-06
             325     3.57785E-03    -62.0826E-06
             326     3.58406E-03    -62.0025E-06
             327     3.58419E-03    -66.8236E-06
             328     3.56573E-03    -62.1845E-06
             329     3.57173E-03    -62.1434E-06
             330     3.57185E-03    -66.9631E-06
             331     3.55403E-03    -62.2373E-06
             332     3.55982E-03    -62.2168E-06
             333     3.55992E-03    -67.0271E-06
             334     3.54273E-03    -62.2675E-06
             335     3.54832E-03    -62.2549E-06
             336     3.54839E-03    -67.0565E-06
             337     3.53183E-03    -62.2923E-06
             338     3.53722E-03    -62.2799E-06
             339     3.53728E-03    -67.0756E-06
             340     3.52133E-03    -62.3228E-06
             341     3.52652E-03    -62.3057E-06
             342     3.52657E-03    -67.0980E-06
             343     3.51122E-03    -62.3681E-06
             344     3.51621E-03    -62.3419E-06
             345     3.51626E-03    -67.1330E-06
             346     3.50149E-03    -62.4400E-06
             347     3.50630E-03    -62.3980E-06
             348     3.50634E-03    -67.1891E-06
             349     3.60375E-03    -71.1078E-06
             350     3.61045E-03    -70.8230E-06
             351     3.61070E-03    -75.5317E-06
             352     3.61735E-03    -70.6031E-06
             353     3.59072E-03    -71.5108E-06
             354     3.59716E-03    -71.3336E-06
             355     3.59741E-03    -76.1552E-06
             356     3.57814E-03    -71.7191E-06
             357     3.58437E-03    -71.6400E-06
             358     3.58458E-03    -76.4603E-06
             359     3.56597E-03    -71.8078E-06
             360     3.57200E-03    -71.7775E-06
             361     3.57216E-03    -76.5816E-06
             362     3.55422E-03    -71.8419E-06
             363     3.56004E-03    -71.8310E-06
             364     3.56015E-03    -76.6243E-06
             365     3.54288E-03    -71.8574E-06
             366     3.54849E-03    -71.8512E-06
             367     3.54857E-03    -76.6388E-06
             368     3.53195E-03    -71.8730E-06
             369     3.53736E-03    -71.8642E-06
             370     3.53742E-03    -76.6492E-06
             371     3.52144E-03    -71.8992E-06
             372     3.52663E-03    -71.8835E-06
             373     3.52669E-03    -76.6680E-06
             374     3.51132E-03    -71.9432E-06
             375     3.51632E-03    -71.9174E-06
             376     3.51636E-03    -76.7022E-06
             377     3.50158E-03    -72.0142E-06
             378     3.50639E-03    -71.9731E-06
             379     3.50643E-03    -76.7568E-06
             380     3.60433E-03    -80.6515E-06
             381     3.61102E-03    -80.1813E-06
             382     3.61160E-03    -84.9829E-06
             383     3.61795E-03    -79.7197E-06
             384     3.59125E-03    -81.1483E-06
             385     3.59775E-03    -80.9711E-06
             386     3.59818E-03    -85.7824E-06
             387     3.57855E-03    -81.3313E-06
             388     3.58485E-03    -81.2737E-06
             389     3.58511E-03    -86.0476E-06
             390     3.56627E-03    -81.3930E-06
             391     3.57235E-03    -81.3749E-06
             392     3.57250E-03    -86.1409E-06
             393     3.55443E-03    -81.4122E-06
             394     3.56028E-03    -81.4065E-06
             395     3.56038E-03    -86.1739E-06
             396     3.54304E-03    -81.4208E-06
             397     3.54867E-03    -81.4164E-06
             398     3.54873E-03    -86.1870E-06
             399     3.53208E-03    -81.4344E-06
             400     3.53749E-03    -81.4254E-06
             401     3.53754E-03    -86.1993E-06
             402     3.52154E-03    -81.4612E-06
             403     3.52674E-03    -81.4445E-06
             404     3.52678E-03    -86.2212E-06
             405     3.51141E-03    -81.5058E-06
             406     3.51641E-03    -81.4798E-06
             407     3.51645E-03    -86.2590E-06
             408     3.50167E-03    -81.5702E-06
             409     3.50648E-03    -81.5345E-06
             410     3.50651E-03    -86.3130E-06
             411     3.60552E-03    -90.2383E-06
             412     3.61254E-03    -89.7131E-06
             413     3.61378E-03    -94.2575E-06
             414     3.61931E-03    -88.3710E-06
             415     3.59198E-03    -90.6961E-06
             416     3.59874E-03    -90.5692E-06
             417     3.59906E-03    -95.1983E-06
             418     3.57896E-03    -90.8483E-06
             419     3.58540E-03    -90.7947E-06
             420     3.58553E-03    -95.4921E-06
             421     3.56651E-03    -90.9108E-06
             422     3.57266E-03    -90.8862E-06
             423     3.57272E-03    -95.6155E-06
             424     3.55459E-03    -90.9386E-06
             425     3.56048E-03    -90.9261E-06
             426     3.56051E-03    -95.6742E-06
             427     3.54315E-03    -90.9562E-06
             428     3.54880E-03    -90.9462E-06
             429     3.54882E-03    -95.7065E-06
             430     3.53216E-03    -90.9772E-06
             431     3.53759E-03    -90.9640E-06
             432     3.53761E-03    -95.7324E-06
             433     3.52161E-03    -91.0102E-06
             434     3.52683E-03    -90.9902E-06
             435     3.52685E-03    -95.7638E-06
             436     3.51148E-03    -91.0589E-06
             437     3.51648E-03    -91.0311E-06
             438     3.51651E-03    -95.8074E-06
             439     3.50173E-03    -91.1139E-06
             440     3.50655E-03    -91.0870E-06
             441     3.50657E-03    -95.8626E-06


  Minimum            3.50121E-03    -95.8861E-06
         At Node              22             121

  Maximum            3.62257E-03     8.60200E-36
         At Node             111               2

           Total         1.56822    -21.0546E-03


