********************************************************************************
Field Output Report, written Tue Mar 06 14:02:10 2018

Source 1
---------

   ODB: C:/Users/Wagner/Desktop/Projeto FEM/FEM-matlab/Benchmarks/Vaso de Pressao/Job-1.odb
   Step: Step-1
   Frame: Increment      1: Step Time =    1.000

Loc 1 : Integration point values from source 1

Output sorted by column "Element Label".

Field Output reported at integration points for part: PART-1-1

         Element             Int           S.S11
           Label              Pt          @Loc 1
-------------------------------------------------
               1               1        -2.09279
               1               2        -1.67925
               1               3        -1.26267
               2               1        -1.28955
               2               2        -1.21430
               2               3        -1.45284
               3               1        -1.37252
               3               2        -1.23003
               3               3        -1.16957
               4               1        -1.18590
               4               2        -1.26067
               4               3        -1.33939
               5               1        -1.09219
               5               2        -1.00227
               5               3    -987.611E-03
               6               1        -1.00435
               6               2        -1.08544
               6               3        -1.11482
               7               1    -900.830E-03
               7               2    -826.431E-03
               7               3    -819.665E-03
               8               1    -838.222E-03
               8               2    -911.479E-03
               8               3    -925.722E-03
               9               1    -738.099E-03
               9               2    -671.375E-03
               9               3    -666.945E-03
              10               1    -686.148E-03
              10               2    -753.102E-03
              10               3    -761.048E-03
              11               1    -590.404E-03
              11               2    -528.551E-03
              11               3    -525.171E-03
              12               1    -544.333E-03
              12               2    -606.728E-03
              12               3    -611.666E-03
              13               1    -452.564E-03
              13               2    -394.135E-03
              13               3    -391.346E-03
              14               1    -410.236E-03
              14               2    -469.251E-03
              14               3    -472.567E-03
              15               1    -321.781E-03
              15               2    -265.874E-03
              15               3    -263.501E-03
              16               1    -282.092E-03
              16               2    -338.529E-03
              16               3    -340.846E-03
              17               1    -196.206E-03
              17               2    -142.151E-03
              17               3    -140.494E-03
              18               1    -158.761E-03
              18               2    -213.101E-03
              18               3    -214.651E-03
              19               1    -73.9830E-03
              19               2    -21.0799E-03
              19               3    -23.2852E-03
              20               1    -39.9704E-03
              20               2    -92.1849E-03
              20               3    -93.0442E-03
              21               1        -1.22717
              21               2        -1.19029
              21               3        -1.16612
              22               1        -1.18028
              22               2        -1.24118
              22               3        -1.24527
              23               1        -1.17524
              23               2        -1.12084
              23               3        -1.06269
              24               1        -1.07414
              24               2        -1.11809
              24               3        -1.14799
              25               1        -1.03717
              25               2    -966.646E-03
              25               3    -935.812E-03
              26               1    -949.607E-03
              26               2        -1.00787
              26               3        -1.03596
              27               1    -878.595E-03
              27               2    -810.452E-03
              27               3    -794.455E-03
              28               1    -810.250E-03
              28               2    -872.989E-03
              28               3    -891.390E-03
              29               1    -727.294E-03
              29               2    -663.067E-03
              29               3    -653.850E-03
              30               1    -670.893E-03
              30               2    -732.744E-03
              30               3    -744.476E-03
              31               1    -584.735E-03
              31               2    -523.974E-03
              31               3    -518.190E-03
              32               1    -535.834E-03
              32               2    -595.457E-03
              32               3    -603.064E-03
              33               1    -449.584E-03
              33               2    -391.659E-03
              33               3    -387.835E-03
              34               1    -405.683E-03
              34               2    -463.028E-03
              34               3    -468.060E-03
              35               1    -320.423E-03
              35               2    -264.798E-03
              35               3    -262.232E-03
              36               1    -280.049E-03
              36               2    -335.374E-03
              36               3    -338.748E-03
              37               1    -196.157E-03
              37               2    -142.501E-03
              37               3    -140.804E-03
              38               1    -158.388E-03
              38               2    -211.964E-03
              38               3    -214.263E-03
              39               1    -76.3294E-03
              39               2    -24.4886E-03
              39               3    -22.8855E-03
              40               1    -40.1945E-03
              40               2    -92.2586E-03
              40               3    -94.0067E-03
              41               1        -1.22040
              41               2        -1.15756
              41               3        -1.15372
              42               1        -1.17460
              42               2        -1.24094
              42               3        -1.24340
              43               1        -1.09236
              43               2        -1.04091
              43               3        -1.02331
              44               1        -1.03893
              44               2        -1.09623
              44               3        -1.10513
              45               1    -973.766E-03
              45               2    -917.405E-03
              45               3    -897.475E-03
              46               1    -912.189E-03
              46               2    -967.909E-03
              46               3    -982.346E-03
              47               1    -842.816E-03
              47               2    -783.039E-03
              47               3    -767.993E-03
              48               1    -783.531E-03
              48               2    -840.823E-03
              48               3    -854.473E-03
              49               1    -707.096E-03
              49               2    -647.575E-03
              49               3    -637.351E-03
              50               1    -653.795E-03
              50               2    -711.351E-03
              50               3    -721.814E-03
              51               1    -573.213E-03
              51               2    -515.245E-03
              51               3    -508.453E-03
              52               1    -525.526E-03
              52               2    -582.226E-03
              52               3    -589.637E-03
              53               1    -443.187E-03
              53               2    -387.015E-03
              53               3    -382.512E-03
              54               1    -399.914E-03
              54               2    -455.331E-03
              54               3    -460.420E-03
              55               1    -317.240E-03
              55               2    -262.767E-03
              55               3    -259.769E-03
              56               1    -277.260E-03
              56               2    -331.326E-03
              56               3    -334.800E-03
              57               1    -195.069E-03
              57               2    -142.103E-03
              57               3    -140.032E-03
              58               1    -157.453E-03
              58               2    -210.268E-03
              58               3    -212.686E-03
              59               1    -76.2213E-03
              59               2    -24.4976E-03
              59               3    -22.8173E-03
              60               1    -40.1271E-03
              60               2    -91.8937E-03
              60               3    -93.6926E-03
              61               1        -1.22027
              61               2        -1.15390
              61               3        -1.15127
              62               1        -1.17340
              62               2        -1.24084
              62               3        -1.24337
              63               1        -1.07581
              63               2        -1.01649
              63               3        -1.00974
              64               1        -1.02856
              64               2        -1.09113
              64               3        -1.09590
              65               1    -944.224E-03
              65               2    -887.926E-03
              65               3    -877.655E-03
              66               1    -894.483E-03
              66               2    -952.634E-03
              66               3    -960.307E-03
              67               1    -816.379E-03
              67               2    -760.083E-03
              67               3    -749.964E-03
              68               1    -766.454E-03
              68               2    -822.598E-03
              68               3    -831.040E-03
              69               1    -688.461E-03
              69               2    -632.284E-03
              69               3    -624.220E-03
              70               1    -641.061E-03
              70               2    -696.335E-03
              70               3    -703.583E-03
              71               1    -561.372E-03
              71               2    -505.896E-03
              71               3    -500.070E-03
              72               1    -517.306E-03
              72               2    -571.914E-03
              72               3    -577.390E-03
              73               1    -436.255E-03
              73               2    -381.792E-03
              73               3    -377.739E-03
              74               1    -395.191E-03
              74               2    -449.055E-03
              74               3    -452.991E-03
              75               1    -313.630E-03
              75               2    -260.275E-03
              75               3    -257.453E-03
              76               1    -274.930E-03
              76               2    -327.950E-03
              76               3    -330.789E-03
              77               1    -193.597E-03
              77               2    -141.293E-03
              77               3    -139.244E-03
              78               1    -156.636E-03
              78               2    -208.795E-03
              78               3    -210.928E-03
              79               1    -75.9450E-03
              79               2    -24.4615E-03
              79               3    -22.7372E-03
              80               1    -40.0894E-03
              80               2    -91.5506E-03
              80               3    -93.2646E-03
              81               1        -1.22015
              81               2        -1.15281
              81               3        -1.15014
              82               1        -1.17260
              82               2        -1.24078
              82               3        -1.24333
              83               1        -1.07086
              83               2        -1.00816
              83               3        -1.00407
              84               1        -1.02407
              84               2        -1.08869
              84               3        -1.09272
              85               1    -932.122E-03
              85               2    -874.035E-03
              85               3    -868.439E-03
              86               1    -886.749E-03
              86               2    -946.206E-03
              86               3    -951.123E-03
              87               1    -802.066E-03
              87               2    -746.491E-03
              87               3    -740.766E-03
              88               1    -758.603E-03
              88               2    -814.461E-03
              88               3    -819.035E-03
              89               1    -676.553E-03
              89               2    -622.061E-03
              89               3    -617.266E-03
              90               1    -635.196E-03
              90               2    -689.373E-03
              90               3    -692.939E-03
              91               1    -553.212E-03
              91               2    -499.326E-03
              91               3    -495.696E-03
              92               1    -513.739E-03
              92               2    -567.239E-03
              92               3    -569.835E-03
              93               1    -431.364E-03
              93               2    -378.067E-03
              93               3    -375.370E-03
              94               1    -393.353E-03
              94               2    -446.419E-03
              94               3    -448.385E-03
              95               1    -311.068E-03
              95               2    -258.470E-03
              95               3    -256.369E-03
              96               1    -274.138E-03
              96               2    -326.676E-03
              96               3    -328.348E-03
              97               1    -192.531E-03
              97               2    -140.672E-03
              97               3    -138.887E-03
              98               1    -156.401E-03
              98               2    -208.286E-03
              98               3    -209.877E-03
              99               1    -75.7415E-03
              99               2    -24.4193E-03
              99               3    -22.6906E-03
             100               1    -40.1205E-03
             100               2    -91.4387E-03
             100               3    -93.0152E-03
             101               1        -1.21985
             101               2        -1.15178
             101               3        -1.14888
             102               1        -1.17139
             102               2        -1.24064
             102               3        -1.24329
             103               1        -1.06819
             103               2        -1.00437
             103               3        -1.00100
             104               1        -1.02115
             104               2        -1.08629
             104               3        -1.09064
             105               1    -927.069E-03
             105               2    -868.614E-03
             105               3    -865.803E-03
             106               1    -885.258E-03
             106               2    -943.967E-03
             106               3    -946.885E-03
             107               1    -796.690E-03
             107               2    -741.610E-03
             107               3    -739.826E-03
             108               1    -759.471E-03
             108               2    -814.358E-03
             108               3    -814.846E-03
             109               1    -672.534E-03
             109               2    -618.821E-03
             109               3    -617.797E-03
             110               1    -637.510E-03
             110               2    -691.104E-03
             110               3    -690.260E-03
             111               1    -550.915E-03
             111               2    -497.649E-03
             111               3    -496.931E-03
             112               1    -516.375E-03
             112               2    -569.734E-03
             112               3    -568.750E-03
             113               1    -430.350E-03
             113               2    -377.392E-03
             113               3    -376.621E-03
             114               1    -395.563E-03
             114               2    -448.792E-03
             114               3    -448.312E-03
             115               1    -310.738E-03
             115               2    -258.252E-03
             115               3    -257.223E-03
             116               1    -275.563E-03
             116               2    -328.411E-03
             116               3    -328.652E-03
             117               1    -192.447E-03
             117               2    -140.592E-03
             117               3    -139.227E-03
             118               1    -157.014E-03
             118               2    -209.201E-03
             118               3    -210.140E-03
             119               1    -75.7144E-03
             119               2    -24.3832E-03
             119               3    -22.7086E-03
             120               1    -40.2270E-03
             120               2    -91.6719E-03
             120               3    -93.0988E-03
             121               1        -1.21909
             121               2        -1.15010
             121               3        -1.14655
             122               1        -1.16852
             122               2        -1.23992
             122               3        -1.24324
             123               1        -1.06581
             123               2        -1.00288
             123               3        -1.00040
             124               1        -1.02044
             124               2        -1.08336
             124               3        -1.08819
             125               1    -927.023E-03
             125               2    -870.346E-03
             125               3    -871.502E-03
             126               1    -893.379E-03
             126               2    -948.476E-03
             126               3    -946.445E-03
             127               1    -800.024E-03
             127               2    -745.948E-03
             127               3    -749.388E-03
             128               1    -772.264E-03
             128               2    -825.681E-03
             128               3    -819.087E-03
             129               1    -677.549E-03
             129               2    -623.898E-03
             129               3    -627.515E-03
             130               1    -649.927E-03
             130               2    -703.934E-03
             130               3    -697.111E-03
             131               1    -555.867E-03
             131               2    -502.122E-03
             131               3    -504.770E-03
             132               1    -526.092E-03
             132               2    -580.658E-03
             132               3    -575.618E-03
             133               1    -434.276E-03
             133               2    -380.636E-03
             133               3    -381.993E-03
             134               1    -402.135E-03
             134               2    -456.697E-03
             134               3    -453.783E-03
             135               1    -313.289E-03
             135               2    -260.112E-03
             135               3    -260.240E-03
             136               1    -279.300E-03
             136               2    -333.341E-03
             136               3    -332.280E-03
             137               1    -193.650E-03
             137               2    -141.238E-03
             137               3    -140.343E-03
             138               1    -158.494E-03
             138               2    -211.605E-03
             138               3    -211.986E-03
             139               1    -75.9219E-03
             139               2    -24.3676E-03
             139               3    -22.8069E-03
             140               1    -40.3898E-03
             140               2    -92.2661E-03
             140               3    -93.5823E-03
             141               1        -1.21661
             141               2        -1.14710
             141               3        -1.14210
             142               1        -1.16087
             142               2        -1.23528
             142               3        -1.24306
             143               1        -1.06527
             143               2        -1.00783
             143               3        -1.01093
             144               1        -1.03493
             144               2        -1.08664
             144               3        -1.08531
             145               1    -937.744E-03
             145               2    -885.034E-03
             145               3    -896.129E-03
             146               1    -925.800E-03
             146               2    -975.550E-03
             146               3    -956.559E-03
             147               1    -817.172E-03
             147               2    -763.356E-03
             147               3    -775.275E-03
             148               1    -803.914E-03
             148               2    -858.514E-03
             148               3    -839.048E-03
             149               1    -694.266E-03
             149               2    -638.958E-03
             149               3    -648.124E-03
             150               1    -673.880E-03
             150               2    -731.237E-03
             150               3    -717.398E-03
             151               1    -568.961E-03
             151               2    -513.155E-03
             151               3    -519.003E-03
             152               1    -542.141E-03
             152               2    -599.991E-03
             152               3    -591.629E-03
             153               1    -443.221E-03
             153               2    -387.742E-03
             153               3    -390.800E-03
             154               1    -411.932E-03
             154               2    -469.085E-03
             154               3    -464.755E-03
             155               1    -318.595E-03
             155               2    -263.943E-03
             155               3    -264.902E-03
             156               1    -284.541E-03
             156               2    -340.493E-03
             156               3    -338.891E-03
             157               1    -196.055E-03
             157               2    -142.579E-03
             157               3    -142.030E-03
             158               1    -160.499E-03
             158               2    -214.975E-03
             158               3    -215.184E-03
             159               1    -76.3529E-03
             159               2    -24.3856E-03
             159               3    -22.9706E-03
             160               1    -40.5522E-03
             160               2    -93.0786E-03
             160               3    -94.4012E-03
             161               1        -1.21037
             161               2        -1.15025
             161               3        -1.15101
             162               1        -1.17152
             162               2        -1.21106
             162               3        -1.24273
             163               1        -1.08524
             163               2        -1.04210
             163               3        -1.07563
             164               1        -1.13221
             164               2        -1.16614
             164               3        -1.09619
             165               1    -980.430E-03
             165               2    -928.329E-03
             165               3    -961.731E-03
             166               1        -1.00813
             166               2        -1.06628
             166               3        -1.00697
             167               1    -858.112E-03
             167               2    -799.193E-03
             167               3    -821.860E-03
             168               1    -856.450E-03
             168               2    -922.307E-03
             168               3    -889.484E-03
             169               1    -724.625E-03
             169               2    -664.009E-03
             169               3    -677.460E-03
             170               1    -705.195E-03
             170               2    -770.819E-03
             170               3    -753.977E-03
             171               1    -588.984E-03
             171               2    -529.095E-03
             171               3    -536.310E-03
             172               1    -560.024E-03
             172               2    -623.285E-03
             172               3    -615.165E-03
             173               1    -455.385E-03
             173               2    -397.065E-03
             173               3    -400.318E-03
             174               1    -421.501E-03
             174               2    -482.053E-03
             174               3    -478.826E-03
             175               1    -325.286E-03
             175               2    -268.727E-03
             175               3    -269.576E-03
             176               1    -289.168E-03
             176               2    -347.143E-03
             176               3    -346.617E-03
             177               1    -199.007E-03
             177               2    -144.251E-03
             177               3    -143.680E-03
             178               1    -162.269E-03
             178               2    -217.986E-03
             178               3    -218.741E-03
             179               1    -76.8756E-03
             179               2    -24.4432E-03
             179               3    -23.1225E-03
             180               1    -40.6044E-03
             180               2    -93.7383E-03
             180               3    -95.2683E-03
             181               1        -1.27414
             181               2        -1.27484
             181               3        -1.46637
             182               1        -1.91757
             182               2        -2.19654
             182               3        -1.08033
             183               1        -1.22878
             183               2        -1.17284
             183               3        -1.29406
             184               1        -1.40383
             184               2        -1.57275
             184               3        -1.29886
             185               1        -1.09137
             185               2        -1.01469
             185               3        -1.06831
             186               1        -1.11274
             186               2        -1.22258
             186               3        -1.16026
             187               1    -924.372E-03
             187               2    -849.654E-03
             187               3    -873.916E-03
             188               1    -904.716E-03
             188               2    -991.764E-03
             188               3    -971.326E-03
             189               1    -762.132E-03
             189               2    -692.445E-03
             189               3    -703.539E-03
             190               1    -728.855E-03
             190               2    -804.594E-03
             190               3    -796.869E-03
             191               1    -609.619E-03
             191               2    -544.436E-03
             191               3    -548.834E-03
             192               1    -570.857E-03
             192               2    -639.535E-03
             192               3    -637.661E-03
             193               1    -466.048E-03
             193               2    -404.650E-03
             193               3    -405.393E-03
             194               1    -425.141E-03
             194               2    -488.710E-03
             194               3    -490.038E-03
             195               1    -330.196E-03
             195               2    -272.061E-03
             195               3    -270.979E-03
             196               1    -289.147E-03
             196               2    -348.503E-03
             196               3    -351.558E-03
             197               1    -201.081E-03
             197               2    -145.709E-03
             197               3    -144.402E-03
             198               1    -162.167E-03
             198               2    -217.432E-03
             198               3    -220.682E-03
             199               1    -77.5323E-03
             199               2    -24.3903E-03
             199               3    -23.9813E-03
             200               1    -44.2703E-03
             200               2    -95.7291E-03
             200               3    -95.6736E-03


  Minimum                               -2.19654
      At Element                             182
          Int Pt                               2

  Maximum                           -21.0799E-03
      At Element                              19
          Int Pt                               2

           Total                        -381.883


********************************************************************************
Field Output Report, written Tue Mar 06 14:05:21 2018

Source 1
---------

   ODB: C:/Users/Wagner/Desktop/Projeto FEM/FEM-matlab/Benchmarks/Vaso de Pressao/Job-1.odb
   Step: Step-1
   Frame: Increment      1: Step Time =    1.000

Loc 1 : Integration point values from source 1

Output sorted by column "Element Label".

Field Output reported at integration points for part: PART-1-1

         Element             Int           E.E11           E.E22           E.E33           E.E12
           Label              Pt          @Loc 1          @Loc 1          @Loc 1          @Loc 1
-------------------------------------------------------------------------------------------------
               1               1    -30.8485E-06    -18.1540E-06     71.9964E-06    -3.03237E-06
               1               2    -29.2334E-06    -17.9178E-06     71.5754E-06    -1.54086E-06
               1               3    -27.1716E-06    -19.1103E-06     71.5676E-06    -2.42681E-06
               2               1    -27.1796E-06    -19.5111E-06     71.7541E-06    -1.43084E-06
               2               2    -27.2609E-06    -19.0811E-06     72.1658E-06     34.4925E-09
               2               3    -27.7097E-06    -20.1189E-06     72.1835E-06    -3.60236E-06
               3               1    -27.6443E-06    -18.3930E-06     71.0013E-06    -555.130E-09
               3               2    -26.8969E-06    -18.5000E-06     70.5992E-06    -335.156E-09
               3               3    -26.5805E-06    -18.7124E-06     70.5974E-06    -874.779E-09
               4               1    -26.6648E-06    -18.8421E-06     70.7821E-06    -943.867E-09
               4               2    -27.0614E-06    -18.9669E-06     71.1843E-06    -1.42481E-06
               4               3    -27.5966E-06    -18.4050E-06     71.1891E-06    -1.16857E-06
               5               1    -26.0705E-06    -18.6810E-06     70.0464E-06    -152.631E-09
               5               2    -25.5400E-06    -18.7511E-06     69.6580E-06    -107.491E-09
               5               3    -25.4601E-06    -18.8097E-06     69.6574E-06    -400.495E-09
               6               1    -25.5814E-06    -18.8516E-06     69.8372E-06    -500.780E-09
               6               2    -26.0713E-06    -18.8014E-06     70.2273E-06    -697.588E-09
               6               3    -26.2502E-06    -18.6403E-06     70.2290E-06    -336.005E-09
               7               1    -24.8951E-06    -18.8416E-06     69.1229E-06    -59.7145E-09
               7               2    -24.4365E-06    -18.8905E-06     68.7465E-06    -45.2186E-09
               7               3    -24.3989E-06    -18.9192E-06     68.7462E-06    -226.021E-09
               8               1    -24.5349E-06    -18.9374E-06     68.9209E-06    -283.800E-09
               8               2    -24.9945E-06    -18.8782E-06     69.2992E-06    -381.974E-09
               8               3    -25.0767E-06    -18.8107E-06     69.3000E-06    -138.285E-09
               9               1    -23.8600E-06    -18.9510E-06     68.2275E-06    -23.8753E-09
               9               2    -23.4407E-06    -18.9860E-06     67.8623E-06    -17.9228E-09
               9               3    -23.4161E-06    -19.0049E-06     67.8622E-06    -138.637E-09
              10               1    -23.5555E-06    -19.0157E-06     68.0319E-06    -167.346E-09
              10               2    -23.9821E-06    -18.9677E-06     68.3991E-06    -226.704E-09
              10               3    -24.0284E-06    -18.9290E-06     68.3994E-06    -64.5474E-09
              11               1    -22.9054E-06    -19.0295E-06     67.3586E-06    -5.73721E-09
              11               2    -22.5129E-06    -19.0547E-06     67.0039E-06    -3.21890E-09
              11               3    -22.4942E-06    -19.0688E-06     67.0039E-06    -88.9046E-09
              12               1    -22.6325E-06    -19.0772E-06     67.1688E-06    -100.488E-09
              12               2    -23.0330E-06    -19.0400E-06     67.5253E-06    -140.384E-09
              12               3    -23.0626E-06    -19.0140E-06     67.5255E-06    -27.1702E-09
              13               1    -22.0071E-06    -19.0869E-06     66.5146E-06     4.18792E-09
              13               2    -21.6345E-06    -19.1055E-06     66.1701E-06     4.91129E-09
              13               3    -21.6193E-06    -19.1168E-06     66.1701E-06    -60.1619E-09
              14               1    -21.7550E-06    -19.1240E-06     66.3303E-06    -61.6839E-09
              14               2    -22.1351E-06    -19.0949E-06     66.6767E-06    -89.9633E-09
              14               3    -22.1556E-06    -19.0759E-06     66.6768E-06    -6.23224E-09
              15               1    -21.1513E-06    -19.1303E-06     65.6945E-06     9.35138E-09
              15               2    -20.7939E-06    -19.1448E-06     65.3596E-06     8.78275E-09
              15               3    -20.7811E-06    -19.1540E-06     65.3596E-06    -44.8539E-09
              16               1    -20.9142E-06    -19.1605E-06     65.5154E-06    -40.5424E-09
              16               2    -21.2782E-06    -19.1368E-06     65.8521E-06    -61.1923E-09
              16               3    -21.2931E-06    -19.1223E-06     65.8522E-06     5.16023E-09
              17               1    -20.3283E-06    -19.1651E-06     64.8973E-06     10.8345E-09
              17               2    -19.9830E-06    -19.1767E-06     64.5717E-06     8.13775E-09
              17               3    -19.9740E-06    -19.1833E-06     64.5717E-06    -38.4165E-09
              18               1    -20.1040E-06    -19.1897E-06     64.7232E-06    -30.3976E-09
              18               2    -20.4546E-06    -19.1700E-06     65.0506E-06    -46.4557E-09
              18               3    -20.4653E-06    -19.1586E-06     65.0506E-06     9.92381E-09
              19               1    -19.5300E-06    -19.1932E-06     64.1221E-06     3.45324E-09
              19               2    -19.1963E-06    -19.1967E-06     63.8053E-06    -1.71866E-09
              19               3    -19.2023E-06    -19.2018E-06     63.8053E-06    -26.3045E-09
              20               1    -19.3237E-06    -19.2105E-06     63.9526E-06    -20.0551E-09
              20               2    -19.6603E-06    -19.1961E-06     64.2711E-06    -38.9766E-09
              20               3    -19.6675E-06    -19.1867E-06     64.2711E-06     7.96323E-09
              21               1    -27.1462E-06    -19.2604E-06     71.9660E-06    -150.024E-09
              21               2    -26.8355E-06    -19.2568E-06     71.5570E-06    -931.125E-09
              21               3    -26.7905E-06    -19.1473E-06     71.5520E-06    -584.170E-09
              22               1    -26.9131E-06    -19.1721E-06     71.7403E-06    -279.280E-09
              22               2    -27.4503E-06    -18.8581E-06     72.1518E-06    -41.3346E-09
              22               3    -27.4518E-06    -18.8942E-06     72.1561E-06    -30.9729E-09
              23               1    -26.6365E-06    -19.0253E-06     70.9918E-06    -1.04360E-06
              23               2    -26.3012E-06    -18.9376E-06     70.5930E-06    -945.941E-09
              23               3    -26.0197E-06    -19.0870E-06     70.5897E-06    -836.532E-09
              24               1    -26.1195E-06    -19.1369E-06     70.7732E-06    -714.989E-09
              24               2    -26.4371E-06    -19.1763E-06     71.1728E-06    -627.002E-09
              24               3    -26.5544E-06    -19.1661E-06     71.1771E-06    -984.659E-09
              25               1    -25.7757E-06    -18.8882E-06     70.0427E-06    -690.570E-09
              25               2    -25.3420E-06    -18.9015E-06     69.6554E-06    -530.478E-09
              25               3    -25.1804E-06    -19.0098E-06     69.6536E-06    -611.240E-09
              26               1    -25.2910E-06    -19.0501E-06     69.8326E-06    -617.721E-09
              26               2    -25.6633E-06    -19.0750E-06     70.2213E-06    -729.178E-09
              26               3    -25.8172E-06    -18.9621E-06     70.2239E-06    -764.556E-09
              27               1    -24.7742E-06    -18.9292E-06     69.1212E-06    -398.623E-09
              27               2    -24.3464E-06    -18.9609E-06     68.7452E-06    -295.962E-09
              27               3    -24.2591E-06    -19.0251E-06     68.7443E-06    -395.377E-09
              28               1    -24.3812E-06    -19.0513E-06     68.9185E-06    -423.968E-09
              28               2    -24.7821E-06    -19.0371E-06     69.2962E-06    -531.758E-09
              28               3    -24.8859E-06    -18.9558E-06     69.2976E-06    -457.319E-09
              29               1    -23.8010E-06    -18.9943E-06     68.2267E-06    -228.327E-09
              29               2    -23.3931E-06    -19.0245E-06     67.8617E-06    -162.724E-09
              29               3    -23.3414E-06    -19.0648E-06     67.8613E-06    -247.630E-09
              30               1    -23.4697E-06    -19.0825E-06     68.0307E-06    -269.670E-09
              30               2    -23.8670E-06    -19.0582E-06     68.3975E-06    -350.779E-09
              30               3    -23.9339E-06    -19.0045E-06     68.3982E-06    -265.019E-09
              31               1    -22.8745E-06    -19.0520E-06     67.3582E-06    -127.432E-09
              31               2    -22.4863E-06    -19.0769E-06     67.0037E-06    -83.6309E-09
              31               3    -22.4532E-06    -19.1036E-06     67.0035E-06    -151.863E-09
              32               1    -22.5839E-06    -19.1164E-06     67.1683E-06    -163.646E-09
              32               2    -22.9680E-06    -19.0932E-06     67.5246E-06    -221.599E-09
              32               3    -23.0119E-06    -19.0571E-06     67.5249E-06    -147.771E-09
              33               1    -21.9914E-06    -19.0977E-06     66.5145E-06    -67.2857E-09
              33               2    -21.6199E-06    -19.1179E-06     66.1700E-06    -37.4802E-09
              33               3    -21.5979E-06    -19.1362E-06     66.1700E-06    -93.1647E-09
              34               1    -21.7288E-06    -19.1457E-06     66.3302E-06    -96.6300E-09
              34               2    -22.0986E-06    -19.1259E-06     66.6764E-06    -136.918E-09
              34               3    -22.1279E-06    -19.1014E-06     66.6766E-06    -76.3172E-09
              35               1    -21.1448E-06    -19.1338E-06     65.6945E-06    -33.3488E-09
              35               2    -20.7873E-06    -19.1508E-06     65.3596E-06    -12.8618E-09
              35               3    -20.7724E-06    -19.1634E-06     65.3597E-06    -60.2691E-09
              36               1    -20.9023E-06    -19.1705E-06     65.5155E-06    -58.2241E-09
              36               2    -21.2593E-06    -19.1537E-06     65.8521E-06    -85.9015E-09
              36               3    -21.2790E-06    -19.1368E-06     65.8521E-06    -34.9527E-09
              37               1    -20.3289E-06    -19.1632E-06     64.8973E-06    -16.0638E-09
              37               2    -19.9838E-06    -19.1779E-06     64.5717E-06    -306.717E-12
              37               3    -19.9733E-06    -19.1877E-06     64.5717E-06    -41.9110E-09
              38               1    -20.1012E-06    -19.1932E-06     64.7233E-06    -37.3777E-09
              38               2    -20.4470E-06    -19.1780E-06     65.0507E-06    -57.9730E-09
              38               3    -20.4607E-06    -19.1659E-06     65.0506E-06    -13.1682E-09
              39               1    -19.5415E-06    -19.1869E-06     64.1221E-06    -3.08648E-09
              39               2    -19.2067E-06    -19.2018E-06     63.8053E-06     17.9519E-09
              39               3    -19.1960E-06    -19.2130E-06     63.8053E-06    -22.3263E-09
              40               1    -19.3218E-06    -19.2168E-06     63.9528E-06    -19.4669E-09
              40               2    -19.6582E-06    -19.2016E-06     64.2712E-06    -40.3271E-09
              40               3    -19.6693E-06    -19.1908E-06     64.2711E-06     770.671E-12
              41               1    -27.2461E-06    -18.9587E-06     71.9561E-06    -20.0293E-09
              41               2    -26.7888E-06    -19.0721E-06     71.5471E-06    -234.857E-09
              41               3    -26.7948E-06    -19.0224E-06     71.5447E-06    -204.340E-09
              42               1    -26.9672E-06    -18.9904E-06     71.7341E-06    -115.701E-09
              42               2    -27.4602E-06    -18.8266E-06     72.1456E-06    -41.4711E-09
              42               3    -27.4679E-06    -18.8321E-06     72.1477E-06     10.6469E-09
              43               1    -26.2826E-06    -19.1240E-06     70.9829E-06    -448.701E-09
              43               2    -25.9223E-06    -19.1215E-06     70.5857E-06    -554.187E-09
              43               3    -25.8509E-06    -19.1334E-06     70.5835E-06    -459.910E-09
              44               1    -25.9860E-06    -19.1374E-06     70.7673E-06    -373.078E-09
              44               2    -26.3954E-06    -19.0779E-06     71.1666E-06    -280.837E-09
              44               3    -26.4174E-06    -19.1059E-06     71.1688E-06    -357.753E-09
              45               1    -25.4550E-06    -19.0816E-06     70.0373E-06    -565.917E-09
              45               2    -25.0825E-06    -19.0762E-06     69.6511E-06    -514.159E-09
              45               3    -24.9834E-06    -19.1332E-06     69.6496E-06    -484.146E-09
              46               1    -25.1060E-06    -19.1534E-06     69.8285E-06    -450.067E-09
              46               2    -25.4814E-06    -19.1484E-06     70.2164E-06    -462.695E-09
              46               3    -25.5474E-06    -19.1213E-06     70.2182E-06    -534.969E-09
              47               1    -24.5825E-06    -19.0634E-06     69.1182E-06    -441.375E-09
              47               2    -24.1954E-06    -19.0733E-06     68.7430E-06    -357.526E-09
              47               3    -24.1151E-06    -19.1295E-06     68.7421E-06    -375.990E-09
              48               1    -24.2376E-06    -19.1523E-06     68.9161E-06    -370.956E-09
              48               2    -24.6139E-06    -19.1478E-06     69.2931E-06    -437.208E-09
              48               3    -24.6869E-06    -19.0970E-06     69.2943E-06    -449.468E-09
              49               1    -23.6888E-06    -19.0794E-06     68.2252E-06    -290.093E-09
              49               2    -23.3052E-06    -19.0942E-06     67.8606E-06    -217.394E-09
              49               3    -23.2484E-06    -19.1376E-06     67.8602E-06    -251.791E-09
              50               1    -23.3735E-06    -19.1576E-06     68.0295E-06    -253.957E-09
              50               2    -23.7482E-06    -19.1484E-06     68.3958E-06    -324.598E-09
              50               3    -23.8074E-06    -19.1015E-06     68.3965E-06    -304.351E-09
              51               1    -22.8089E-06    -19.1046E-06     67.3575E-06    -171.372E-09
              51               2    -22.4356E-06    -19.1190E-06     67.0032E-06    -116.862E-09
              51               3    -22.3970E-06    -19.1500E-06     67.0031E-06    -153.619E-09
              52               1    -22.5241E-06    -19.1661E-06     67.1678E-06    -153.947E-09
              52               2    -22.8918E-06    -19.1556E-06     67.5238E-06    -211.534E-09
              52               3    -22.9349E-06    -19.1195E-06     67.5241E-06    -180.652E-09
              53               1    -21.9543E-06    -19.1285E-06     66.5143E-06    -91.2705E-09
              53               2    -21.5924E-06    -19.1417E-06     66.1699E-06    -53.0366E-09
              53               3    -21.5666E-06    -19.1630E-06     66.1700E-06    -88.5875E-09
              54               1    -21.6946E-06    -19.1752E-06     66.3301E-06    -85.0855E-09
              54               2    -22.0532E-06    -19.1651E-06     66.6763E-06    -126.707E-09
              54               3    -22.0831E-06    -19.1393E-06     66.6763E-06    -93.7705E-09
              55               1    -21.1261E-06    -19.1498E-06     65.6946E-06    -43.4428E-09
              55               2    -20.7748E-06    -19.1626E-06     65.3597E-06    -17.3794E-09
              55               3    -20.7575E-06    -19.1770E-06     65.3599E-06    -51.8353E-09
              56               1    -20.8855E-06    -19.1857E-06     65.5157E-06    -45.3781E-09
              56               2    -21.2350E-06    -19.1755E-06     65.8523E-06    -73.4322E-09
              56               3    -21.2554E-06    -19.1579E-06     65.8522E-06    -40.4283E-09
              57               1    -20.3219E-06    -19.1703E-06     64.8975E-06    -18.1023E-09
              57               2    -19.9797E-06    -19.1842E-06     64.5719E-06     1.33642E-09
              57               3    -19.9675E-06    -19.1948E-06     64.5720E-06    -33.7248E-09
              58               1    -20.0949E-06    -19.2001E-06     64.7236E-06    -26.5832E-09
              58               2    -20.4363E-06    -19.1885E-06     65.0510E-06    -45.6276E-09
              58               3    -20.4505E-06    -19.1763E-06     65.0508E-06    -11.9416E-09
              59               1    -19.5384E-06    -19.1932E-06     64.1223E-06    -2.13806E-09
              59               2    -19.2032E-06    -19.2103E-06     63.8055E-06     18.2604E-09
              59               3    -19.1925E-06    -19.2210E-06     63.8057E-06    -20.7857E-09
              60               1    -19.3192E-06    -19.2228E-06     63.9531E-06    -16.4259E-09
              60               2    -19.6545E-06    -19.2075E-06     64.2716E-06    -32.8846E-09
              60               3    -19.6653E-06    -19.1977E-06     64.2714E-06     3.65002E-09
              61               1    -27.2842E-06    -18.8640E-06     71.9515E-06    -11.3833E-09
              61               2    -26.8161E-06    -18.9719E-06     71.5424E-06    -86.5957E-09
              61               3    -26.8136E-06    -18.9539E-06     71.5413E-06    -120.259E-09
              62               1    -26.9929E-06    -18.9172E-06     71.7313E-06    -84.8749E-09
              62               2    -27.4700E-06    -18.8002E-06     72.1429E-06    -46.2317E-09
              62               3    -27.4784E-06    -18.8034E-06     72.1437E-06     8.46398E-09
              63               1    -26.2445E-06    -19.0647E-06     70.9783E-06    -210.907E-09
              63               2    -25.8323E-06    -19.1154E-06     70.5812E-06    -282.440E-09
              63               3    -25.8082E-06    -19.1121E-06     70.5802E-06    -264.828E-09
              64               1    -25.9627E-06    -19.0992E-06     70.7645E-06    -218.783E-09
              64               2    -26.4020E-06    -19.0156E-06     71.1637E-06    -176.373E-09
              64               3    -26.4148E-06    -19.0278E-06     71.1646E-06    -163.867E-09
              65               1    -25.3198E-06    -19.1373E-06     70.0336E-06    -342.932E-09
              65               2    -24.9382E-06    -19.1542E-06     69.6479E-06    -337.727E-09
              65               3    -24.8886E-06    -19.1800E-06     69.6472E-06    -308.590E-09
              66               1    -25.0247E-06    -19.1874E-06     69.8262E-06    -275.274E-09
              66               2    -25.4232E-06    -19.1491E-06     70.2138E-06    -280.860E-09
              66               3    -25.4561E-06    -19.1397E-06     70.2146E-06    -305.583E-09
              67               1    -24.4450E-06    -19.1528E-06     69.1158E-06    -322.238E-09
              67               2    -24.0722E-06    -19.1600E-06     68.7411E-06    -271.233E-09
              67               3    -24.0183E-06    -19.1977E-06     68.7406E-06    -256.012E-09
              68               1    -24.1467E-06    -19.2150E-06     68.9147E-06    -235.936E-09
              68               2    -24.5226E-06    -19.2010E-06     69.2913E-06    -280.398E-09
              68               3    -24.5667E-06    -19.1720E-06     69.2919E-06    -305.995E-09
              69               1    -23.5859E-06    -19.1568E-06     68.2239E-06    -229.266E-09
              69               2    -23.2190E-06    -19.1619E-06     67.8597E-06    -170.379E-09
              69               3    -23.1740E-06    -19.1969E-06     67.8596E-06    -169.801E-09
              70               1    -23.3010E-06    -19.2158E-06     68.0289E-06    -155.979E-09
              70               2    -23.6651E-06    -19.2113E-06     68.3949E-06    -210.509E-09
              70               3    -23.7064E-06    -19.1779E-06     68.3952E-06    -223.343E-09
              71               1    -22.7411E-06    -19.1596E-06     67.3571E-06    -133.090E-09
              71               2    -22.3813E-06    -19.1643E-06     67.0030E-06    -83.6541E-09
              71               3    -22.3481E-06    -19.1915E-06     67.0031E-06    -93.3003E-09
              72               1    -22.4756E-06    -19.2082E-06     67.1678E-06    -80.9908E-09
              72               2    -22.8316E-06    -19.2065E-06     67.5237E-06    -128.037E-09
              72               3    -22.8642E-06    -19.1779E-06     67.5237E-06    -128.319E-09
              73               1    -21.9138E-06    -19.1629E-06     66.5143E-06    -61.2054E-09
              73               2    -21.5617E-06    -19.1684E-06     66.1701E-06    -25.3494E-09
              73               3    -21.5385E-06    -19.1876E-06     66.1703E-06    -42.0126E-09
              74               1    -21.6664E-06    -19.2007E-06     66.3305E-06    -29.4521E-09
              74               2    -22.0155E-06    -19.1988E-06     66.6765E-06    -63.5662E-09
              74               3    -22.0392E-06    -19.1775E-06     66.6764E-06    -54.0854E-09
              75               1    -21.1049E-06    -19.1683E-06     65.6949E-06    -18.0025E-09
              75               2    -20.7600E-06    -19.1758E-06     65.3601E-06     5.81753E-09
              75               3    -20.7442E-06    -19.1886E-06     65.3604E-06    -16.3082E-09
              76               1    -20.8719E-06    -19.1979E-06     65.5163E-06    -3.47660E-09
              76               2    -21.2147E-06    -19.1941E-06     65.8528E-06    -25.2300E-09
              76               3    -21.2314E-06    -19.1793E-06     65.8525E-06    -8.23486E-09
              77               1    -20.3132E-06    -19.1784E-06     64.8979E-06     1.64782E-09
              77               2    -19.9744E-06    -19.1899E-06     64.5723E-06     17.3489E-09
              77               3    -19.9632E-06    -19.1985E-06     64.5726E-06    -10.5685E-09
              78               1    -20.0907E-06    -19.2035E-06     64.7243E-06     1.38949E-09
              78               2    -20.4280E-06    -19.1959E-06     65.0516E-06    -10.7068E-09
              78               3    -20.4400E-06    -19.1861E-06     65.0513E-06     12.8455E-09
              79               1    -19.5358E-06    -19.1973E-06     64.1227E-06     7.43387E-09
              79               2    -19.2008E-06    -19.2161E-06     63.8060E-06     21.2617E-09
              79               3    -19.1913E-06    -19.2237E-06     63.8063E-06    -15.8882E-09
              80               1    -19.3192E-06    -19.2232E-06     63.9538E-06    -7.60969E-09
              80               2    -19.6529E-06    -19.2088E-06     64.2723E-06    -13.9249E-09
              80               3    -19.6621E-06    -19.2020E-06     64.2719E-06     17.4485E-09
              81               1    -27.3036E-06    -18.8159E-06     71.9497E-06    -17.5783E-09
              81               2    -26.8330E-06    -18.9213E-06     71.5405E-06    -56.8862E-09
              81               3    -26.8257E-06    -18.9150E-06     71.5404E-06    -110.955E-09
              82               1    -27.0082E-06    -18.8741E-06     71.7308E-06    -92.6912E-09
              82               2    -27.4841E-06    -18.7664E-06     72.1425E-06    -55.5227E-09
              82               3    -27.4906E-06    -18.7732E-06     72.1424E-06     2.68283E-09
              83               1    -26.2438E-06    -19.0216E-06     70.9764E-06    -129.590E-09
              83               2    -25.8093E-06    -19.0950E-06     70.5794E-06    -155.783E-09
              83               3    -25.7919E-06    -19.1003E-06     70.5793E-06    -174.131E-09
              84               1    -25.9530E-06    -19.0822E-06     70.7640E-06    -154.556E-09
              84               2    -26.4057E-06    -18.9853E-06     71.1632E-06    -153.945E-09
              84               3    -26.4211E-06    -18.9841E-06     71.1632E-06    -108.644E-09
              85               1    -25.2688E-06    -19.1498E-06     70.0319E-06    -190.195E-09
              85               2    -24.8728E-06    -19.1850E-06     69.6466E-06    -176.810E-09
              85               3    -24.8434E-06    -19.2050E-06     69.6466E-06    -161.741E-09
              86               1    -24.9867E-06    -19.2087E-06     69.8259E-06    -138.679E-09
              86               2    -25.3980E-06    -19.1517E-06     70.2134E-06    -172.489E-09
              86               3    -25.4226E-06    -19.1371E-06     70.2133E-06    -169.114E-09
              87               1    -24.3703E-06    -19.2019E-06     69.1148E-06    -168.896E-09
              87               2    -23.9989E-06    -19.2126E-06     68.7404E-06    -128.777E-09
              87               3    -23.9664E-06    -19.2390E-06     68.7406E-06    -103.594E-09
              88               1    -24.1011E-06    -19.2536E-06     68.9149E-06    -78.6854E-09
              88               2    -24.4790E-06    -19.2322E-06     69.2913E-06    -126.044E-09
              88               3    -24.5056E-06    -19.2097E-06     69.2911E-06    -150.022E-09
              89               1    -23.5186E-06    -19.2103E-06     68.2236E-06    -103.033E-09
              89               2    -23.1602E-06    -19.2103E-06     67.8597E-06    -57.8810E-09
              89               3    -23.1321E-06    -19.2347E-06     67.8600E-06    -39.0290E-09
              90               1    -23.2641E-06    -19.2517E-06     68.0295E-06    -14.5308E-09
              90               2    -23.6230E-06    -19.2495E-06     68.3953E-06    -58.2460E-09
              90               3    -23.6458E-06    -19.2270E-06     68.3950E-06    -85.9264E-09
              91               1    -22.6931E-06    -19.2011E-06     67.3573E-06    -35.3018E-09
              91               2    -22.3424E-06    -19.1987E-06     67.0034E-06     2.31651E-09
              91               3    -22.3210E-06    -19.2176E-06     67.0038E-06     9.13152E-09
              92               1    -22.4521E-06    -19.2328E-06     67.1687E-06     31.8613E-09
              92               2    -22.8014E-06    -19.2373E-06     67.5244E-06    -868.162E-12
              92               3    -22.8187E-06    -19.2190E-06     67.5240E-06    -18.6995E-09
              93               1    -21.8847E-06    -19.1891E-06     66.5149E-06     12.9924E-09
              93               2    -21.5397E-06    -19.1881E-06     66.1708E-06     39.4310E-09
              93               3    -21.5242E-06    -19.2014E-06     66.1712E-06     34.4394E-09
              94               1    -21.6545E-06    -19.2135E-06     66.3316E-06     55.0232E-09
              94               2    -21.9980E-06    -19.2178E-06     66.6775E-06     34.0224E-09
              94               3    -22.0108E-06    -19.2046E-06     66.6770E-06     29.6867E-09
              95               1    -21.0902E-06    -19.1812E-06     65.6956E-06     37.2319E-09
              95               2    -20.7502E-06    -19.1839E-06     65.3609E-06     53.1666E-09
              95               3    -20.7389E-06    -19.1925E-06     65.3614E-06     38.3321E-09
              96               1    -20.8681E-06    -19.2011E-06     65.5174E-06     56.9243E-09
              96               2    -21.2069E-06    -19.2022E-06     65.8539E-06     46.0948E-09
              96               3    -21.2168E-06    -19.1933E-06     65.8534E-06     54.0445E-09
              97               1    -20.3082E-06    -19.1816E-06     64.8988E-06     39.9917E-09
              97               2    -19.9724E-06    -19.1900E-06     64.5732E-06     47.3868E-09
              97               3    -19.9639E-06    -19.1950E-06     64.5737E-06     23.5615E-09
              98               1    -20.0920E-06    -19.1995E-06     64.7254E-06     40.2552E-09
              98               2    -20.4267E-06    -19.1955E-06     65.0527E-06     38.3978E-09
              98               3    -20.4348E-06    -19.1900E-06     65.0522E-06     56.5725E-09
              99               1    -19.5364E-06    -19.1950E-06     64.1236E-06     25.8912E-09
              99               2    -19.2021E-06    -19.2135E-06     63.8068E-06     27.4199E-09
              99               3    -19.1949E-06    -19.2158E-06     63.8073E-06    -8.69061E-09
             100               1    -19.3238E-06    -19.2138E-06     63.9549E-06     5.12528E-09
             100               2    -19.6560E-06    -19.2018E-06     64.2734E-06     12.4852E-09
             100               3    -19.6627E-06    -19.1993E-06     64.2729E-06     41.0180E-09
             101               1    -27.3211E-06    -18.7728E-06     71.9501E-06    -35.5461E-09
             101               2    -26.8418E-06    -18.8921E-06     71.5408E-06    -69.6865E-09
             101               3    -26.8318E-06    -18.8909E-06     71.5416E-06    -136.698E-09
             102               1    -27.0201E-06    -18.8377E-06     71.7324E-06    -128.086E-09
             102               2    -27.5068E-06    -18.7139E-06     72.1442E-06    -75.0487E-09
             102               3    -27.5093E-06    -18.7301E-06     72.1432E-06    -9.79251E-09
             103               1    -26.2403E-06    -19.0069E-06     70.9767E-06    -108.468E-09
             103               2    -25.7950E-06    -19.0959E-06     70.5798E-06    -92.1996E-09
             103               3    -25.7744E-06    -19.1156E-06     70.5806E-06    -119.876E-09
             104               1    -25.9359E-06    -19.0986E-06     70.7656E-06    -119.168E-09
             104               2    -26.3995E-06    -18.9805E-06     71.1648E-06    -168.477E-09
             104               3    -26.4217E-06    -18.9654E-06     71.1639E-06    -107.573E-09
             105               1    -25.2422E-06    -19.1686E-06     70.0324E-06    -80.7718E-09
             105               2    -24.8421E-06    -19.2102E-06     69.6471E-06    -37.6102E-09
             105               3    -24.8215E-06    -19.2348E-06     69.6480E-06    -20.1831E-09
             106               1    -24.9677E-06    -19.2419E-06     69.8277E-06    -3.14971E-09
             106               2    -25.3793E-06    -19.1778E-06     70.2151E-06    -80.2313E-09
             106               3    -25.4011E-06    -19.1513E-06     70.2141E-06    -76.5165E-09
             107               1    -24.3363E-06    -19.2356E-06     69.1156E-06    -10.7585E-09
             107               2    -23.9674E-06    -19.2446E-06     68.7413E-06     33.6325E-09
             107               3    -23.9528E-06    -19.2642E-06     68.7421E-06     67.2546E-09
             108               1    -24.0944E-06    -19.2785E-06     68.9168E-06     97.4517E-09
             108               2    -24.4674E-06    -19.2602E-06     69.2931E-06     40.1153E-09
             108               3    -24.4776E-06    -19.2397E-06     69.2921E-06     5.91094E-09
             109               1    -23.4909E-06    -19.2412E-06     68.2246E-06     53.7384E-09
             109               2    -23.1376E-06    -19.2361E-06     67.8608E-06     88.0555E-09
             109               3    -23.1286E-06    -19.2492E-06     67.8616E-06     114.794E-09
             110               1    -23.2686E-06    -19.2632E-06     68.0314E-06     148.043E-09
             110               2    -23.6227E-06    -19.2671E-06     68.3972E-06     116.101E-09
             110               3    -23.6242E-06    -19.2554E-06     68.3963E-06     77.8937E-09
             111               1    -22.6762E-06    -19.2219E-06     67.3585E-06     94.6310E-09
             111               2    -22.3300E-06    -19.2142E-06     67.0047E-06     117.243E-09
             111               3    -22.3242E-06    -19.2223E-06     67.0055E-06     128.528E-09
             112               1    -22.4622E-06    -19.2340E-06     67.1705E-06     158.827E-09
             112               2    -22.8087E-06    -19.2438E-06     67.5263E-06     144.386E-09
             112               3    -22.8071E-06    -19.2379E-06     67.5254E-06     120.346E-09
             113               1    -21.8772E-06    -19.1991E-06     66.5162E-06     111.000E-09
             113               2    -21.5352E-06    -19.1940E-06     66.1721E-06     123.732E-09
             113               3    -21.5305E-06    -19.1990E-06     66.1728E-06     119.832E-09
             114               1    -21.6657E-06    -19.2082E-06     66.3333E-06     145.539E-09
             114               2    -22.0082E-06    -19.2163E-06     66.6793E-06     141.343E-09
             114               3    -22.0073E-06    -19.2134E-06     66.6785E-06     135.267E-09
             115               1    -21.0889E-06    -19.1826E-06     65.6970E-06     107.210E-09
             115               2    -20.7507E-06    -19.1821E-06     65.3622E-06     111.944E-09
             115               3    -20.7460E-06    -19.1848E-06     65.3629E-06     96.0748E-09
             116               1    -20.8781E-06    -19.1918E-06     65.5190E-06     117.850E-09
             116               2    -21.2170E-06    -19.1954E-06     65.8556E-06     120.132E-09
             116               3    -21.2182E-06    -19.1939E-06     65.8548E-06     129.312E-09
             117               1    -20.3108E-06    -19.1762E-06     64.9001E-06     86.6138E-09
             117               2    -19.9763E-06    -19.1816E-06     64.5744E-06     83.5800E-09
             117               3    -19.9713E-06    -19.1821E-06     64.5751E-06     58.2147E-09
             118               1    -20.1007E-06    -19.1861E-06     64.7269E-06     77.7308E-09
             118               2    -20.4355E-06    -19.1846E-06     65.0543E-06     86.5182E-09
             118               3    -20.4389E-06    -19.1841E-06     65.0536E-06     107.000E-09
             119               1    -19.5418E-06    -19.1834E-06     64.1248E-06     48.2653E-09
             119               2    -19.2089E-06    -19.1985E-06     63.8080E-06     34.9530E-09
             119               3    -19.2046E-06    -19.1947E-06     63.8086E-06    -1.60027E-09
             120               1    -19.3335E-06    -19.1934E-06     63.9563E-06     17.6206E-09
             120               2    -19.6647E-06    -19.1850E-06     64.2748E-06     37.7720E-09
             120               3    -19.6688E-06    -19.1872E-06     64.2742E-06     67.6675E-09
             121               1    -27.3433E-06    -18.7171E-06     71.9526E-06    -73.7053E-09
             121               2    -26.8426E-06    -18.8781E-06     71.5433E-06    -112.603E-09
             121               3    -26.8273E-06    -18.8848E-06     71.5450E-06    -191.655E-09
             122               1    -27.0246E-06    -18.8061E-06     71.7363E-06    -198.321E-09
             122               2    -27.5455E-06    -18.6214E-06     72.1482E-06    -122.367E-09
             122               3    -27.5417E-06    -18.6570E-06     72.1462E-06    -38.0852E-09
             123               1    -26.2235E-06    -19.0280E-06     70.9791E-06    -105.362E-09
             123               2    -25.7762E-06    -19.1294E-06     70.5823E-06    -32.6077E-09
             123               3    -25.7505E-06    -19.1698E-06     70.5841E-06    -37.8444E-09
             124               1    -25.9066E-06    -19.1648E-06     70.7697E-06    -48.3487E-09
             124               2    -26.3765E-06    -19.0127E-06     71.1688E-06    -189.144E-09
             124               3    -26.4101E-06    -18.9741E-06     71.1668E-06    -130.941E-09
             125               1    -25.2253E-06    -19.2102E-06     70.0350E-06     42.1394E-09
             125               2    -24.8358E-06    -19.2427E-06     69.6498E-06     121.842E-09
             125               3    -24.8292E-06    -19.2699E-06     69.6516E-06     166.121E-09
             126               1    -24.9814E-06    -19.2845E-06     69.8318E-06     192.592E-09
             126               2    -25.3747E-06    -19.2317E-06     70.2192E-06     71.9386E-09
             126               3    -25.3817E-06    -19.1958E-06     70.2172E-06     35.5103E-09
             127               1    -24.3388E-06    -19.2611E-06     69.1182E-06     170.969E-09
             127               2    -23.9784E-06    -19.2590E-06     68.7438E-06     217.291E-09
             127               3    -23.9885E-06    -19.2670E-06     68.7455E-06     261.023E-09
             128               1    -24.1436E-06    -19.2785E-06     68.9205E-06     303.621E-09
             128               2    -24.5035E-06    -19.2782E-06     69.2971E-06     254.088E-09
             128               3    -24.4823E-06    -19.2685E-06     69.2952E-06     192.138E-09
             129               1    -23.5078E-06    -19.2476E-06     68.2271E-06     227.201E-09
             129               2    -23.1576E-06    -19.2358E-06     67.8632E-06     245.739E-09
             129               3    -23.1726E-06    -19.2337E-06     67.8645E-06     268.600E-09
             130               1    -23.3255E-06    -19.2412E-06     68.0346E-06     309.422E-09
             130               2    -23.6770E-06    -19.2551E-06     68.4007E-06     302.483E-09
             130               3    -23.6485E-06    -19.2609E-06     68.3991E-06     259.809E-09
             131               1    -22.6979E-06    -19.2164E-06     67.3607E-06     230.614E-09
             131               2    -22.3512E-06    -19.2058E-06     67.0068E-06     234.153E-09
             131               3    -22.3636E-06    -19.2009E-06     67.0080E-06     235.210E-09
             132               1    -22.5112E-06    -19.2065E-06     67.1732E-06     268.517E-09
             132               2    -22.8608E-06    -19.2196E-06     67.5292E-06     278.184E-09
             132               3    -22.8374E-06    -19.2293E-06     67.5279E-06     263.191E-09
             133               1    -21.8973E-06    -19.1881E-06     66.5182E-06     206.812E-09
             133               2    -21.5532E-06    -19.1820E-06     66.1740E-06     203.427E-09
             133               3    -21.5605E-06    -19.1777E-06     66.1750E-06     187.805E-09
             134               1    -21.7021E-06    -19.1825E-06     66.3356E-06     213.793E-09
             134               2    -22.0496E-06    -19.1907E-06     66.6818E-06     227.777E-09
             134               3    -22.0348E-06    -19.1990E-06     66.6807E-06     235.208E-09
             135               1    -21.1048E-06    -19.1693E-06     65.6988E-06     170.430E-09
             135               2    -20.7644E-06    -19.1681E-06     65.3640E-06     163.201E-09
             135               3    -20.7666E-06    -19.1650E-06     65.3649E-06     136.455E-09
             136               1    -20.9024E-06    -19.1694E-06     65.5210E-06     157.264E-09
             136               2    -21.2461E-06    -19.1723E-06     65.8577E-06     171.754E-09
             136               3    -21.2394E-06    -19.1780E-06     65.8568E-06     194.374E-09
             137               1    -20.3225E-06    -19.1609E-06     64.9018E-06     125.735E-09
             137               2    -19.9869E-06    -19.1640E-06     64.5761E-06     113.261E-09
             137               3    -19.9854E-06    -19.1606E-06     64.5769E-06     79.7479E-09
             138               1    -20.1162E-06    -19.1646E-06     64.7287E-06     98.6539E-09
             138               2    -20.4543E-06    -19.1634E-06     65.0562E-06     115.091E-09
             138               3    -20.4537E-06    -19.1673E-06     65.0554E-06     146.740E-09
             139               1    -19.5522E-06    -19.1626E-06     64.1264E-06     66.5131E-09
             139               2    -19.2213E-06    -19.1709E-06     63.8095E-06     41.0879E-09
             139               3    -19.2194E-06    -19.1626E-06     63.8103E-06     2.35816E-09
             140               1    -19.3472E-06    -19.1646E-06     63.9580E-06     24.5806E-09
             140               2    -19.6781E-06    -19.1607E-06     64.2766E-06     51.2636E-09
             140               3    -19.6804E-06    -19.1659E-06     64.2758E-06     87.4724E-09
             141               1    -27.3691E-06    -18.6404E-06     71.9577E-06    -157.406E-09
             141               2    -26.8256E-06    -18.8967E-06     71.5483E-06    -177.854E-09
             141               3    -26.7910E-06    -18.9374E-06     71.5516E-06    -240.340E-09
             142               1    -26.9872E-06    -18.8345E-06     71.7437E-06    -286.834E-09
             142               2    -27.6093E-06    -18.4397E-06     72.1557E-06    -272.556E-09
             142               3    -27.6055E-06    -18.5125E-06     72.1520E-06    -119.860E-09
             143               1    -26.1886E-06    -19.1098E-06     70.9843E-06    -51.9999E-09
             143               2    -25.7661E-06    -19.2012E-06     70.5875E-06     111.301E-09
             143               3    -25.7534E-06    -19.2609E-06     70.5908E-06     194.947E-09
             144               1    -25.9115E-06    -19.2864E-06     70.7772E-06     212.280E-09
             144               2    -26.3475E-06    -19.1162E-06     71.1763E-06    -85.1321E-09
             144               3    -26.3733E-06    -19.0408E-06     71.1726E-06    -116.481E-09
             145               1    -25.2436E-06    -19.2655E-06     70.0402E-06     258.290E-09
             145               2    -24.8827E-06    -19.2654E-06     69.6548E-06     354.829E-09
             145               3    -24.9222E-06    -19.2723E-06     69.6577E-06     438.422E-09
             146               1    -25.1062E-06    -19.2812E-06     69.8387E-06     503.068E-09
             146               2    -25.4575E-06    -19.2805E-06     70.2265E-06     401.818E-09
             146               3    -25.3912E-06    -19.2672E-06     70.2230E-06     264.227E-09
             147               1    -24.4059E-06    -19.2578E-06     69.1229E-06     394.692E-09
             147               2    -24.0535E-06    -19.2391E-06     68.7482E-06     417.216E-09
             147               3    -24.1071E-06    -19.2197E-06     68.7505E-06     449.900E-09
             148               1    -24.2901E-06    -19.2163E-06     68.9261E-06     506.314E-09
             148               2    -24.6433E-06    -19.2427E-06     69.3032E-06     513.987E-09
             148               3    -24.5579E-06    -19.2704E-06     69.3004E-06     434.240E-09
             149               1    -23.5854E-06    -19.2155E-06     68.2310E-06     393.211E-09
             149               2    -23.2304E-06    -19.2002E-06     67.8667E-06     383.117E-09
             149               3    -23.2749E-06    -19.1773E-06     67.8685E-06     376.130E-09
             150               1    -23.4454E-06    -19.1733E-06     68.0389E-06     415.293E-09
             150               2    -23.8076E-06    -19.1918E-06     68.4055E-06     449.914E-09
             150               3    -23.7412E-06    -19.2247E-06     68.4034E-06     434.463E-09
             151               1    -22.7641E-06    -19.1787E-06     67.3639E-06     336.915E-09
             151               2    -22.4087E-06    -19.1701E-06     67.0097E-06     318.291E-09
             151               3    -22.4387E-06    -19.1521E-06     67.0110E-06     288.894E-09
             152               1    -22.5963E-06    -19.1504E-06     67.1765E-06     315.474E-09
             152               2    -22.9599E-06    -19.1597E-06     67.5328E-06     349.180E-09
             152               3    -22.9172E-06    -19.1852E-06     67.5313E-06     370.924E-09
             153               1    -21.9461E-06    -19.1546E-06     66.5208E-06     268.535E-09
             153               2    -21.5936E-06    -19.1517E-06     66.1764E-06     250.147E-09
             153               3    -21.6106E-06    -19.1396E-06     66.1774E-06     209.317E-09
             154               1    -21.7578E-06    -19.1401E-06     66.3382E-06     228.295E-09
             154               2    -22.1173E-06    -19.1430E-06     66.6846E-06     255.403E-09
             154               3    -22.0935E-06    -19.1599E-06     66.6834E-06     295.107E-09
             155               1    -21.1373E-06    -19.1418E-06     65.7010E-06     202.527E-09
             155               2    -20.7902E-06    -19.1430E-06     65.3661E-06     185.952E-09
             155               3    -20.7973E-06    -19.1357E-06     65.3669E-06     139.698E-09
             156               1    -20.9363E-06    -19.1379E-06     65.5232E-06     154.537E-09
             156               2    -21.2891E-06    -19.1364E-06     65.8600E-06     175.788E-09
             156               3    -21.2784E-06    -19.1465E-06     65.8590E-06     223.452E-09
             157               1    -20.3423E-06    -19.1374E-06     64.9037E-06     140.114E-09
             157               2    -20.0030E-06    -19.1399E-06     64.5779E-06     122.615E-09
             157               3    -20.0035E-06    -19.1349E-06     64.5787E-06     75.5864E-09
             158               1    -20.1353E-06    -19.1392E-06     64.7306E-06     89.7848E-09
             158               2    -20.4795E-06    -19.1358E-06     65.0581E-06     107.614E-09
             158               3    -20.4775E-06    -19.1416E-06     65.0574E-06     157.671E-09
             159               1    -19.5660E-06    -19.1360E-06     64.1282E-06     71.7908E-09
             159               2    -19.2371E-06    -19.1361E-06     63.8112E-06     42.7677E-09
             159               3    -19.2359E-06    -19.1272E-06     63.8119E-06     499.900E-12
             160               1    -19.3613E-06    -19.1347E-06     63.9597E-06     21.3097E-09
             160               2    -19.6932E-06    -19.1342E-06     64.2783E-06     43.6369E-09
             160               3    -19.6956E-06    -19.1393E-06     64.2776E-06     90.1701E-09
             161               1    -27.3679E-06    -18.5986E-06     71.9672E-06    -308.820E-09
             161               2    -26.7952E-06    -19.0045E-06     71.5579E-06    -141.836E-09
             161               3    -26.7390E-06    -19.1489E-06     71.5646E-06     66.1746E-09
             162               1    -26.8739E-06    -19.2062E-06     71.7587E-06     54.2914E-09
             162               2    -27.6842E-06    -18.0701E-06     72.1707E-06    -725.808E-09
             162               3    -27.7535E-06    -18.1750E-06     72.1629E-06    -411.807E-09
             163               1    -26.2011E-06    -19.2635E-06     70.9939E-06     284.691E-09
             163               2    -25.8711E-06    -19.2625E-06     70.5968E-06     515.190E-09
             163               3    -25.9996E-06    -19.2587E-06     70.6023E-06     729.048E-09
             164               1    -26.2962E-06    -19.2451E-06     70.7905E-06     899.240E-09
             164               2    -26.5979E-06    -19.2355E-06     71.1908E-06     686.994E-09
             164               3    -26.3327E-06    -19.2409E-06     71.1836E-06     242.453E-09
             165               1    -25.4108E-06    -19.2537E-06     70.0486E-06     628.431E-09
             165               2    -25.0700E-06    -19.2114E-06     69.6625E-06     651.743E-09
             165               3    -25.2254E-06    -19.1419E-06     69.6662E-06     683.520E-09
             166               1    -25.4956E-06    -19.0956E-06     69.8482E-06     773.954E-09
             166               2    -25.8496E-06    -19.1631E-06     70.2376E-06     872.741E-09
             166               3    -25.5795E-06    -19.2740E-06     70.2326E-06     695.596E-09
             167               1    -24.5971E-06    -19.1732E-06     69.1294E-06     598.447E-09
             167               2    -24.2260E-06    -19.1530E-06     68.7539E-06     557.980E-09
             167               3    -24.3371E-06    -19.0927E-06     68.7564E-06     501.191E-09
             168               1    -24.5534E-06    -19.0639E-06     68.9325E-06     532.999E-09
             168               2    -24.9510E-06    -19.0852E-06     69.3108E-06     627.580E-09
             168               3    -24.7900E-06    -19.1732E-06     69.3076E-06     653.234E-09
             169               1    -23.7372E-06    -19.1290E-06     68.2358E-06     475.237E-09
             169               2    -23.3581E-06    -19.1233E-06     67.8709E-06     432.276E-09
             169               3    -23.4259E-06    -19.0834E-06     67.8726E-06     351.080E-09
             170               1    -23.6081E-06    -19.0693E-06     68.0432E-06     361.292E-09
             170               2    -24.0089E-06    -19.0702E-06     68.4106E-06     421.816E-09
             170               3    -23.9226E-06    -19.1236E-06     68.4085E-06     509.017E-09
             171               1    -22.8692E-06    -19.1105E-06     67.3674E-06     357.036E-09
             171               2    -22.4943E-06    -19.1116E-06     67.0128E-06     323.794E-09
             171               3    -22.5319E-06    -19.0877E-06     67.0140E-06     242.083E-09
             172               1    -22.6932E-06    -19.0823E-06     67.1796E-06     246.017E-09
             172               2    -23.0835E-06    -19.0767E-06     67.5364E-06     283.308E-09
             172               3    -23.0399E-06    -19.1067E-06     67.5350E-06     378.594E-09
             173               1    -22.0137E-06    -19.1048E-06     66.5235E-06     260.764E-09
             173               2    -21.6475E-06    -19.1092E-06     66.1788E-06     236.304E-09
             173               3    -21.6657E-06    -19.0958E-06     66.1797E-06     160.920E-09
             174               1    -21.8135E-06    -19.0954E-06     66.3405E-06     164.186E-09
             174               2    -22.1901E-06    -19.0880E-06     66.6872E-06     188.033E-09
             174               3    -22.1710E-06    -19.1037E-06     66.6862E-06     276.225E-09
             175               1    -21.1784E-06    -19.1060E-06     65.7031E-06     182.829E-09
             175               2    -20.8221E-06    -19.1120E-06     65.3681E-06     163.995E-09
             175               3    -20.8287E-06    -19.1048E-06     65.3688E-06     95.4986E-09
             176               1    -20.9675E-06    -19.1070E-06     65.5250E-06     100.258E-09
             176               2    -21.3306E-06    -19.0992E-06     65.8620E-06     117.072E-09
             176               3    -21.3250E-06    -19.1069E-06     65.8612E-06     195.314E-09
             177               1    -20.3655E-06    -19.1107E-06     64.9055E-06     117.242E-09
             177               2    -20.0207E-06    -19.1150E-06     64.5797E-06     101.816E-09
             177               3    -20.0202E-06    -19.1118E-06     64.5804E-06     39.9404E-09
             178               1    -20.1523E-06    -19.1166E-06     64.7323E-06     46.6940E-09
             178               2    -20.5028E-06    -19.1093E-06     65.0599E-06     58.4035E-09
             178               3    -20.5038E-06    -19.1129E-06     65.0592E-06     127.879E-09
             179               1    -19.5794E-06    -19.1109E-06     64.1298E-06     57.9520E-09
             179               2    -19.2518E-06    -19.1038E-06     63.8129E-06     37.9076E-09
             179               3    -19.2489E-06    -19.0997E-06     63.8135E-06    -7.65198E-09
             180               1    -19.3711E-06    -19.1138E-06     63.9612E-06     6.97650E-09
             180               2    -19.7050E-06    -19.1139E-06     64.2799E-06     11.4812E-09
             180               3    -19.7102E-06    -19.1145E-06     64.2793E-06     69.1951E-09
             181               1    -27.4761E-06    -18.9209E-06     71.9892E-06     351.657E-09
             181               2    -27.2444E-06    -19.0569E-06     71.5784E-06     970.340E-09
             181               3    -28.0782E-06    -18.7846E-06     71.5919E-06     1.42978E-06
             182               1    -30.1012E-06    -18.1778E-06     71.7949E-06     2.34475E-06
             182               2    -32.0401E-06    -16.4981E-06     72.2216E-06     2.84631E-06
             182               3    -27.0926E-06    -18.3379E-06     72.1912E-06    -292.924E-09
             183               1    -26.7914E-06    -19.1473E-06     71.0111E-06     1.13116E-06
             183               2    -26.4528E-06    -19.0527E-06     70.6114E-06     1.06062E-06
             183               3    -27.0323E-06    -18.7573E-06     70.6176E-06     767.902E-09
             184               1    -27.6248E-06    -18.5163E-06     70.8077E-06     665.964E-09
             184               2    -28.4350E-06    -18.4965E-06     71.2145E-06     1.25438E-06
             184               3    -27.1364E-06    -19.1425E-06     71.2040E-06     1.30904E-06
             185               1    -25.9413E-06    -18.9884E-06     70.0597E-06     814.195E-09
             185               2    -25.4898E-06    -18.9893E-06     69.6715E-06     679.061E-09
             185               3    -25.7513E-06    -18.8468E-06     69.6746E-06     350.930E-09
             186               1    -26.0191E-06    -18.7894E-06     69.8568E-06     220.812E-09
             186               2    -26.6268E-06    -18.7155E-06     70.2490E-06     351.736E-09
             186               3    -26.3077E-06    -18.9157E-06     70.2449E-06     853.182E-09
             187               1    -24.9283E-06    -18.9815E-06     69.1362E-06     513.016E-09
             187               2    -24.4810E-06    -19.0010E-06     68.7596E-06     438.487E-09
             187               3    -24.5996E-06    -18.9360E-06     68.7612E-06     189.097E-09
             188               1    -24.7975E-06    -18.9172E-06     68.9372E-06     107.960E-09
             188               2    -25.3056E-06    -18.8658E-06     69.3168E-06     140.338E-09
             188               3    -25.1992E-06    -18.9348E-06     69.3148E-06     503.808E-09
             189               1    -23.9299E-06    -19.0090E-06     68.2401E-06     336.352E-09
             189               2    -23.5062E-06    -19.0279E-06     67.8746E-06     298.037E-09
             189               3    -23.5607E-06    -18.9981E-06     67.8756E-06     112.492E-09
             190               1    -23.7301E-06    -18.9925E-06     68.0461E-06     62.3127E-09
             190               2    -24.1840E-06    -18.9579E-06     68.4140E-06     70.4923E-09
             190               3    -24.1434E-06    -18.9847E-06     68.4130E-06     322.019E-09
             191               1    -22.9788E-06    -19.0366E-06     67.3703E-06     229.571E-09
             191               2    -22.5778E-06    -19.0523E-06     67.0154E-06     209.371E-09
             191               3    -22.5997E-06    -19.0400E-06     67.0161E-06     68.3347E-09
             192               1    -22.7519E-06    -19.0412E-06     67.1815E-06     36.8732E-09
             192               2    -23.1705E-06    -19.0168E-06     67.5386E-06     36.3344E-09
             192               3    -23.1596E-06    -19.0253E-06     67.5379E-06     218.843E-09
             193               1    -22.0740E-06    -19.0588E-06     66.5256E-06     158.653E-09
             193               2    -21.6927E-06    -19.0715E-06     66.1808E-06     147.295E-09
             193               3    -21.6970E-06    -19.0683E-06     66.1813E-06     38.7957E-09
             194               1    -21.8369E-06    -19.0737E-06     66.3420E-06     20.0961E-09
             194               2    -22.2293E-06    -19.0558E-06     66.6888E-06     15.8171E-09
             194               3    -22.2344E-06    -19.0550E-06     66.6883E-06     152.978E-09
             195               1    -21.2103E-06    -19.0758E-06     65.7049E-06     105.520E-09
             195               2    -20.8464E-06    -19.0859E-06     65.3697E-06     97.4015E-09
             195               3    -20.8423E-06    -19.0867E-06     65.3702E-06     14.7080E-09
             196               1    -20.9733E-06    -19.0945E-06     65.5263E-06     6.58340E-09
             196               2    -21.3437E-06    -19.0816E-06     65.8633E-06     1.38635E-09
             196               3    -21.3573E-06    -19.0760E-06     65.8629E-06     105.187E-09
             197               1    -20.3834E-06    -19.0885E-06     64.9070E-06     59.8517E-09
             197               2    -20.0347E-06    -19.0964E-06     64.5811E-06     52.4586E-09
             197               3    -20.0298E-06    -19.0970E-06     64.5816E-06    -11.4591E-09
             198               1    -20.1574E-06    -19.1050E-06     64.7335E-06    -8.28289E-09
             198               2    -20.5067E-06    -19.0966E-06     65.0611E-06    -11.7698E-09
             198               3    -20.5211E-06    -19.0906E-06     65.0607E-06     63.8527E-09
             199               1    -19.5887E-06    -19.0962E-06     64.1312E-06     25.2085E-09
             199               2    -19.2601E-06    -19.0853E-06     63.8142E-06     28.8592E-09
             199               3    -19.2556E-06    -19.0928E-06     63.8146E-06    -31.5903E-09
             200               1    -19.3902E-06    -19.1021E-06     63.9623E-06    -19.7584E-09
             200               2    -19.7187E-06    -19.1005E-06     64.2810E-06    -28.8023E-09
             200               3    -19.7186E-06    -19.0997E-06     64.2806E-06     25.0773E-09


  Minimum                           -32.0401E-06    -20.1189E-06     63.8053E-06    -3.60236E-06
      At Element                             182               2              39               2
          Int Pt                               2               3               2               3

  Maximum                           -19.1913E-06    -16.4981E-06     72.2216E-06     2.84631E-06
      At Element                              79             182             182             182
          Int Pt                               3               2               2               2

           Total                    -13.9420E-03    -11.4578E-03     40.6794E-03    -970.738E-09


********************************************************************************
Field Output Report, written Tue Mar 06 14:17:19 2018

Source 1
---------

   ODB: C:/Users/Wagner/Desktop/Projeto FEM/FEM-matlab/Benchmarks/Vaso de Pressao/Job-1.odb
   Step: Step-1
   Frame: Increment      1: Step Time =    1.000

Loc 1 : Nodal values from source 1

Output sorted by column "Node Label".

Field Output reported at nodes for part: PART-1-1

            Node            U.U1            U.U2
           Label          @Loc 1          @Loc 1
-------------------------------------------------
               1     3.62034E-03    -22.3349E-36
               2     3.60484E-03     8.60200E-36
               3     3.59109E-03     5.31267E-36
               4     3.57813E-03     3.42377E-36
               5     3.56575E-03     2.13976E-36
               6     3.55389E-03     1.09465E-36
               7     3.54250E-03     237.819E-39
               8     3.53155E-03    -469.731E-39
               9     3.52103E-03    -1.07048E-36
              10     3.51092E-03    -1.59284E-36
              11     3.50122E-03    -880.025E-39
              12     3.61772E-03    -9.81483E-06
              13     3.60419E-03    -9.31694E-06
              14     3.59088E-03    -9.33859E-06
              15     3.57804E-03    -9.40673E-06
              16     3.56571E-03    -9.46293E-06
              17     3.55386E-03    -9.50510E-06
              18     3.54249E-03    -9.53625E-06
              19     3.53155E-03    -9.55961E-06
              20     3.52103E-03    -9.57790E-06
              21     3.51092E-03    -9.59251E-06
              22     3.50121E-03    -9.60064E-06
              23     3.61717E-03    -19.2035E-06
              24     3.60362E-03    -18.9082E-06
              25     3.59053E-03    -18.8426E-06
              26     3.57785E-03    -18.8958E-06
              27     3.56561E-03    -18.9701E-06
              28     3.55382E-03    -19.0358E-06
              29     3.54247E-03    -19.0877E-06
              30     3.53155E-03    -19.1280E-06
              31     3.52104E-03    -19.1603E-06
              32     3.51093E-03    -19.1872E-06
              33     3.50122E-03    -19.2078E-06
              34     3.61691E-03    -28.5913E-06
              35     3.60334E-03    -28.4466E-06
              36     3.59029E-03    -28.4069E-06
              37     3.57768E-03    -28.4520E-06
              38     3.56551E-03    -28.5271E-06
              39     3.55377E-03    -28.5998E-06
              40     3.54246E-03    -28.6600E-06
              41     3.53155E-03    -28.7082E-06
              42     3.52106E-03    -28.7485E-06
              43     3.51095E-03    -28.7851E-06
              44     3.50124E-03    -28.8193E-06
              45     3.61680E-03    -37.9730E-06
              46     3.60322E-03    -37.9445E-06
              47     3.59017E-03    -37.9719E-06
              48     3.57760E-03    -38.0405E-06
              49     3.56547E-03    -38.1209E-06
              50     3.55377E-03    -38.1933E-06
              51     3.54247E-03    -38.2520E-06
              52     3.53159E-03    -38.2997E-06
              53     3.52110E-03    -38.3420E-06
              54     3.51100E-03    -38.3848E-06
              55     3.50128E-03    -38.4330E-06
              56     3.61680E-03    -47.3405E-06
              57     3.60322E-03    -47.4206E-06
              58     3.59017E-03    -47.5334E-06
              59     3.57761E-03    -47.6455E-06
              60     3.56550E-03    -47.7378E-06
              61     3.55381E-03    -47.8066E-06
              62     3.54253E-03    -47.8573E-06
              63     3.53165E-03    -47.8980E-06
              64     3.52116E-03    -47.9372E-06
              65     3.51106E-03    -47.9829E-06
              66     3.50135E-03    -48.0436E-06
              67     3.61691E-03    -56.6822E-06
              68     3.60332E-03    -56.8861E-06
              69     3.59028E-03    -57.1028E-06
              70     3.57773E-03    -57.2658E-06
              71     3.56562E-03    -57.3681E-06
              72     3.55393E-03    -57.4282E-06
              73     3.54264E-03    -57.4658E-06
              74     3.53175E-03    -57.4958E-06
              75     3.52125E-03    -57.5291E-06
              76     3.51115E-03    -57.5748E-06
              77     3.50143E-03    -57.6441E-06
              78     3.61714E-03    -65.9739E-06
              79     3.60354E-03    -66.3542E-06
              80     3.59051E-03    -66.6978E-06
              81     3.57796E-03    -66.9016E-06
              82     3.56582E-03    -66.9999E-06
              83     3.55410E-03    -67.0434E-06
              84     3.54278E-03    -67.0652E-06
              85     3.53187E-03    -67.0844E-06
              86     3.52136E-03    -67.1119E-06
              87     3.51124E-03    -67.1562E-06
              88     3.50152E-03    -67.2282E-06
              89     3.61756E-03    -75.1522E-06
              90     3.60396E-03    -75.8588E-06
              91     3.59094E-03    -76.3335E-06
              92     3.57832E-03    -76.5366E-06
              93     3.56610E-03    -76.6099E-06
              94     3.55430E-03    -76.6333E-06
              95     3.54294E-03    -76.6428E-06
              96     3.53200E-03    -76.6557E-06
              97     3.52147E-03    -76.6811E-06
              98     3.51134E-03    -76.7249E-06
              99     3.50161E-03    -76.7933E-06
             100     3.61840E-03    -84.0326E-06
             101     3.60484E-03    -85.4767E-06
             102     3.59160E-03    -85.9633E-06
             103     3.57875E-03    -86.1120E-06
             104     3.56638E-03    -86.1629E-06
             105     3.55449E-03    -86.1807E-06
             106     3.54308E-03    -86.1909E-06
             107     3.53210E-03    -86.2065E-06
             108     3.52156E-03    -86.2357E-06
             109     3.51142E-03    -86.2821E-06
             110     3.50168E-03    -86.3427E-06
             111     3.62257E-03    -92.6149E-06
             112     3.60637E-03    -94.9371E-06
             113     3.59221E-03    -95.3755E-06
             114     3.57904E-03    -95.5594E-06
             115     3.56654E-03    -95.6450E-06
             116     3.55459E-03    -95.6879E-06
             117     3.54315E-03    -95.7155E-06
             118     3.53216E-03    -95.7433E-06
             119     3.52162E-03    -95.7807E-06
             120     3.51148E-03    -95.8318E-06
             121     3.50173E-03    -95.8861E-06
             122     3.61223E-03    -2.12233E-36
             123     3.60461E-03    -4.55481E-06
             124     3.61140E-03    -4.53850E-06
             125     3.61092E-03    -9.41628E-06
             126     3.61833E-03    -5.24979E-06
             127     3.59785E-03     4.85822E-36
             128     3.59106E-03    -4.64997E-06
             129     3.59771E-03    -4.59825E-06
             130     3.59750E-03    -9.30877E-06
             131     3.58454E-03     3.60721E-36
             132     3.57814E-03    -4.69938E-06
             133     3.58450E-03    -4.67026E-06
             134     3.58441E-03    -9.38317E-06
             135     3.57188E-03     2.37746E-36
             136     3.56577E-03    -4.73052E-06
             137     3.57187E-03    -4.71040E-06
             138     3.57182E-03    -9.44475E-06
             139     3.55977E-03     1.29456E-36
             140     3.55391E-03    -4.75251E-06
             141     3.55976E-03    -4.73776E-06
             142     3.55974E-03    -9.49170E-06
             143     3.54814E-03     384.984E-39
             144     3.54252E-03    -4.76846E-06
             145     3.54814E-03    -4.75738E-06
             146     3.54813E-03    -9.52669E-06
             147     3.53698E-03    -366.834E-39
             148     3.53157E-03    -4.78034E-06
             149     3.53698E-03    -4.77171E-06
             150     3.53697E-03    -9.55272E-06
             151     3.52625E-03    -999.211E-39
             152     3.52106E-03    -4.78963E-06
             153     3.52625E-03    -4.78256E-06
             154     3.52625E-03    -9.57268E-06
             155     3.51594E-03    -1.54587E-36
             156     3.51095E-03    -4.79710E-06
             157     3.51594E-03    -4.79127E-06
             158     3.51594E-03    -9.58868E-06
             159     3.50603E-03    -1.95090E-36
             160     3.50123E-03    -4.79933E-06
             161     3.50603E-03    -4.79829E-06
             162     3.50603E-03    -9.60093E-06
             163     3.60387E-03    -14.1190E-06
             164     3.61056E-03    -14.2314E-06
             165     3.61034E-03    -19.0244E-06
             166     3.61743E-03    -14.5236E-06
             167     3.59072E-03    -14.0773E-06
             168     3.59723E-03    -14.0651E-06
             169     3.59704E-03    -18.8493E-06
             170     3.57797E-03    -14.1440E-06
             171     3.58427E-03    -14.1052E-06
             172     3.58415E-03    -18.8677E-06
             173     3.56569E-03    -14.2132E-06
             174     3.57175E-03    -14.1771E-06
             175     3.57168E-03    -18.9399E-06
             176     3.55387E-03    -14.2691E-06
             177     3.55970E-03    -14.2403E-06
             178     3.55967E-03    -19.0109E-06
             179     3.54250E-03    -14.3118E-06
             180     3.54811E-03    -14.2897E-06
             181     3.54810E-03    -19.0688E-06
             182     3.53157E-03    -14.3443E-06
             183     3.53697E-03    -14.3271E-06
             184     3.53696E-03    -19.1136E-06
             185     3.52106E-03    -14.3700E-06
             186     3.52625E-03    -14.3561E-06
             187     3.52625E-03    -19.1487E-06
             188     3.51095E-03    -14.3908E-06
             189     3.51594E-03    -14.3795E-06
             190     3.51594E-03    -19.1778E-06
             191     3.50123E-03    -14.4050E-06
             192     3.50603E-03    -14.3976E-06
             193     3.50603E-03    -19.2018E-06
             194     3.60348E-03    -23.6891E-06
             195     3.61018E-03    -23.7641E-06
             196     3.61007E-03    -28.5117E-06
             197     3.61705E-03    -23.9047E-06
             198     3.59041E-03    -23.6262E-06
             199     3.59688E-03    -23.6303E-06
             200     3.59677E-03    -28.4147E-06
             201     3.57778E-03    -23.6708E-06
             202     3.58403E-03    -23.6381E-06
             203     3.58394E-03    -28.4265E-06
             204     3.56558E-03    -23.7456E-06
             205     3.57161E-03    -23.7057E-06
             206     3.57155E-03    -28.4938E-06
             207     3.55382E-03    -23.8159E-06
             208     3.55963E-03    -23.7808E-06
             209     3.55960E-03    -28.5702E-06
             210     3.54248E-03    -23.8730E-06
             211     3.54808E-03    -23.8449E-06
             212     3.54807E-03    -28.6364E-06
             213     3.53157E-03    -23.9182E-06
             214     3.53696E-03    -23.8957E-06
             215     3.53696E-03    -28.6895E-06
             216     3.52107E-03    -23.9551E-06
             217     3.52626E-03    -23.9362E-06
             218     3.52626E-03    -28.7326E-06
             219     3.51096E-03    -23.9872E-06
             220     3.51595E-03    -23.9703E-06
             221     3.51596E-03    -28.7704E-06
             222     3.50125E-03    -24.0145E-06
             223     3.50605E-03    -24.0001E-06
             224     3.50606E-03    -28.8058E-06
             225     3.60329E-03    -33.2042E-06
             226     3.61000E-03    -33.2277E-06
             227     3.60996E-03    -37.9570E-06
             228     3.61687E-03    -33.2888E-06
             229     3.59024E-03    -33.1938E-06
             230     3.59669E-03    -33.1809E-06
             231     3.59665E-03    -37.9556E-06
             232     3.57765E-03    -33.2464E-06
             233     3.58388E-03    -33.2108E-06
             234     3.58384E-03    -38.0077E-06
             235     3.56551E-03    -33.3225E-06
             236     3.57151E-03    -33.2820E-06
             237     3.57149E-03    -38.0857E-06
             238     3.55379E-03    -33.3951E-06
             239     3.55958E-03    -33.3594E-06
             240     3.55958E-03    -38.1633E-06
             241     3.54248E-03    -33.4553E-06
             242     3.54807E-03    -33.4263E-06
             243     3.54808E-03    -38.2284E-06
             244     3.53159E-03    -33.5040E-06
             245     3.53697E-03    -33.4802E-06
             246     3.53699E-03    -38.2804E-06
             247     3.52110E-03    -33.5460E-06
             248     3.52628E-03    -33.5247E-06
             249     3.52630E-03    -38.3242E-06
             250     3.51099E-03    -33.5863E-06
             251     3.51598E-03    -33.5650E-06
             252     3.51601E-03    -38.3658E-06
             253     3.50128E-03    -33.6278E-06
             254     3.50608E-03    -33.6052E-06
             255     3.50610E-03    -38.4110E-06
             256     3.60324E-03    -42.6896E-06
             257     3.60994E-03    -42.6610E-06
             258     3.60995E-03    -47.3795E-06
             259     3.61682E-03    -42.6641E-06
             260     3.59018E-03    -42.7565E-06
             261     3.59663E-03    -42.7111E-06
             262     3.59664E-03    -47.4816E-06
             263     3.57762E-03    -42.8438E-06
             264     3.58383E-03    -42.7951E-06
             265     3.58384E-03    -47.5973E-06
             266     3.56550E-03    -42.9287E-06
             267     3.57149E-03    -42.8862E-06
             268     3.57151E-03    -47.6996E-06
             269     3.55380E-03    -42.9993E-06
             270     3.55959E-03    -42.9659E-06
             271     3.55962E-03    -47.7788E-06
             272     3.54252E-03    -43.0545E-06
             273     3.54810E-03    -43.0287E-06
             274     3.54813E-03    -47.8369E-06
             275     3.53164E-03    -43.0994E-06
             276     3.53702E-03    -43.0777E-06
             277     3.53705E-03    -47.8811E-06
             278     3.52115E-03    -43.1407E-06
             279     3.52633E-03    -43.1195E-06
             280     3.52637E-03    -47.9198E-06
             281     3.51105E-03    -43.1857E-06
             282     3.51604E-03    -43.1612E-06
             283     3.51607E-03    -47.9611E-06
             284     3.50133E-03    -43.2409E-06
             285     3.50613E-03    -43.2097E-06
             286     3.50616E-03    -48.0131E-06
             287     3.60328E-03    -52.1599E-06
             288     3.60999E-03    -52.0727E-06
             289     3.61006E-03    -56.7821E-06
             290     3.61687E-03    -52.0212E-06
             291     3.59024E-03    -52.3201E-06
             292     3.59668E-03    -52.2333E-06
             293     3.59675E-03    -57.0080E-06
             294     3.57768E-03    -52.4556E-06
             295     3.58388E-03    -52.3894E-06
             296     3.58396E-03    -57.1999E-06
             297     3.56557E-03    -52.5527E-06
             298     3.57156E-03    -52.5085E-06
             299     3.57163E-03    -57.3282E-06
             300     3.55388E-03    -52.6176E-06
             301     3.55967E-03    -52.5891E-06
             302     3.55973E-03    -57.4049E-06
             303     3.54260E-03    -52.6623E-06
             304     3.54818E-03    -52.6423E-06
             305     3.54824E-03    -57.4508E-06
             306     3.53172E-03    -52.6982E-06
             307     3.53710E-03    -52.6808E-06
             308     3.53715E-03    -57.4829E-06
             309     3.52123E-03    -52.7348E-06
             310     3.52641E-03    -52.7154E-06
             311     3.52646E-03    -57.5134E-06
             312     3.51112E-03    -52.7811E-06
             313     3.51612E-03    -52.7551E-06
             314     3.51616E-03    -57.5517E-06
             315     3.50140E-03    -52.8473E-06
             316     3.50621E-03    -52.8090E-06
             317     3.50625E-03    -57.6073E-06
             318     3.60344E-03    -61.6261E-06
             319     3.61015E-03    -61.4614E-06
             320     3.61028E-03    -66.1629E-06
             321     3.61703E-03    -61.3449E-06
             322     3.59040E-03    -61.8992E-06
             323     3.59684E-03    -61.7650E-06
             324     3.59698E-03    -66.5562E-06
             325     3.57785E-03    -62.0826E-06
             326     3.58406E-03    -62.0025E-06
             327     3.58419E-03    -66.8236E-06
             328     3.56573E-03    -62.1845E-06
             329     3.57173E-03    -62.1434E-06
             330     3.57185E-03    -66.9631E-06
             331     3.55403E-03    -62.2373E-06
             332     3.55982E-03    -62.2168E-06
             333     3.55992E-03    -67.0271E-06
             334     3.54273E-03    -62.2675E-06
             335     3.54832E-03    -62.2549E-06
             336     3.54839E-03    -67.0565E-06
             337     3.53183E-03    -62.2923E-06
             338     3.53722E-03    -62.2799E-06
             339     3.53728E-03    -67.0756E-06
             340     3.52133E-03    -62.3228E-06
             341     3.52652E-03    -62.3057E-06
             342     3.52657E-03    -67.0980E-06
             343     3.51122E-03    -62.3681E-06
             344     3.51621E-03    -62.3419E-06
             345     3.51626E-03    -67.1330E-06
             346     3.50149E-03    -62.4400E-06
             347     3.50630E-03    -62.3980E-06
             348     3.50634E-03    -67.1891E-06
             349     3.60375E-03    -71.1078E-06
             350     3.61045E-03    -70.8230E-06
             351     3.61070E-03    -75.5317E-06
             352     3.61735E-03    -70.6031E-06
             353     3.59072E-03    -71.5108E-06
             354     3.59716E-03    -71.3336E-06
             355     3.59741E-03    -76.1552E-06
             356     3.57814E-03    -71.7191E-06
             357     3.58437E-03    -71.6400E-06
             358     3.58458E-03    -76.4603E-06
             359     3.56597E-03    -71.8078E-06
             360     3.57200E-03    -71.7775E-06
             361     3.57216E-03    -76.5816E-06
             362     3.55422E-03    -71.8419E-06
             363     3.56004E-03    -71.8310E-06
             364     3.56015E-03    -76.6243E-06
             365     3.54288E-03    -71.8574E-06
             366     3.54849E-03    -71.8512E-06
             367     3.54857E-03    -76.6388E-06
             368     3.53195E-03    -71.8730E-06
             369     3.53736E-03    -71.8642E-06
             370     3.53742E-03    -76.6492E-06
             371     3.52144E-03    -71.8992E-06
             372     3.52663E-03    -71.8835E-06
             373     3.52669E-03    -76.6680E-06
             374     3.51132E-03    -71.9432E-06
             375     3.51632E-03    -71.9174E-06
             376     3.51636E-03    -76.7022E-06
             377     3.50158E-03    -72.0142E-06
             378     3.50639E-03    -71.9731E-06
             379     3.50643E-03    -76.7568E-06
             380     3.60433E-03    -80.6515E-06
             381     3.61102E-03    -80.1813E-06
             382     3.61160E-03    -84.9829E-06
             383     3.61795E-03    -79.7197E-06
             384     3.59125E-03    -81.1483E-06
             385     3.59775E-03    -80.9711E-06
             386     3.59818E-03    -85.7824E-06
             387     3.57855E-03    -81.3313E-06
             388     3.58485E-03    -81.2737E-06
             389     3.58511E-03    -86.0476E-06
             390     3.56627E-03    -81.3930E-06
             391     3.57235E-03    -81.3749E-06
             392     3.57250E-03    -86.1409E-06
             393     3.55443E-03    -81.4122E-06
             394     3.56028E-03    -81.4065E-06
             395     3.56038E-03    -86.1739E-06
             396     3.54304E-03    -81.4208E-06
             397     3.54867E-03    -81.4164E-06
             398     3.54873E-03    -86.1870E-06
             399     3.53208E-03    -81.4344E-06
             400     3.53749E-03    -81.4254E-06
             401     3.53754E-03    -86.1993E-06
             402     3.52154E-03    -81.4612E-06
             403     3.52674E-03    -81.4445E-06
             404     3.52678E-03    -86.2212E-06
             405     3.51141E-03    -81.5058E-06
             406     3.51641E-03    -81.4798E-06
             407     3.51645E-03    -86.2590E-06
             408     3.50167E-03    -81.5702E-06
             409     3.50648E-03    -81.5345E-06
             410     3.50651E-03    -86.3130E-06
             411     3.60552E-03    -90.2383E-06
             412     3.61254E-03    -89.7131E-06
             413     3.61378E-03    -94.2575E-06
             414     3.61931E-03    -88.3710E-06
             415     3.59198E-03    -90.6961E-06
             416     3.59874E-03    -90.5692E-06
             417     3.59906E-03    -95.1983E-06
             418     3.57896E-03    -90.8483E-06
             419     3.58540E-03    -90.7947E-06
             420     3.58553E-03    -95.4921E-06
             421     3.56651E-03    -90.9108E-06
             422     3.57266E-03    -90.8862E-06
             423     3.57272E-03    -95.6155E-06
             424     3.55459E-03    -90.9386E-06
             425     3.56048E-03    -90.9261E-06
             426     3.56051E-03    -95.6742E-06
             427     3.54315E-03    -90.9562E-06
             428     3.54880E-03    -90.9462E-06
             429     3.54882E-03    -95.7065E-06
             430     3.53216E-03    -90.9772E-06
             431     3.53759E-03    -90.9640E-06
             432     3.53761E-03    -95.7324E-06
             433     3.52161E-03    -91.0102E-06
             434     3.52683E-03    -90.9902E-06
             435     3.52685E-03    -95.7638E-06
             436     3.51148E-03    -91.0589E-06
             437     3.51648E-03    -91.0311E-06
             438     3.51651E-03    -95.8074E-06
             439     3.50173E-03    -91.1139E-06
             440     3.50655E-03    -91.0870E-06
             441     3.50657E-03    -95.8626E-06


  Minimum            3.50121E-03    -95.8861E-06
         At Node              22             121

  Maximum            3.62257E-03     8.60200E-36
         At Node             111               2

           Total         1.56822    -21.0546E-03


********************************************************************************
Field Output Report, written Tue Mar 06 14:17:22 2018

Source 1
---------

   ODB: C:/Users/Wagner/Desktop/Projeto FEM/FEM-matlab/Benchmarks/Vaso de Pressao/Job-1.odb
   Step: Step-1
   Frame: Increment      1: Step Time =    1.000

Loc 1 : Nodal values from source 1

Output sorted by column "Node Label".

Field Output reported at nodes for part: PART-1-1

            Node            U.U1            U.U2
           Label          @Loc 1          @Loc 1
-------------------------------------------------
               1     3.62034E-03    -22.3349E-36
               2     3.60484E-03     8.60200E-36
               3     3.59109E-03     5.31267E-36
               4     3.57813E-03     3.42377E-36
               5     3.56575E-03     2.13976E-36
               6     3.55389E-03     1.09465E-36
               7     3.54250E-03     237.819E-39
               8     3.53155E-03    -469.731E-39
               9     3.52103E-03    -1.07048E-36
              10     3.51092E-03    -1.59284E-36
              11     3.50122E-03    -880.025E-39
              12     3.61772E-03    -9.81483E-06
              13     3.60419E-03    -9.31694E-06
              14     3.59088E-03    -9.33859E-06
              15     3.57804E-03    -9.40673E-06
              16     3.56571E-03    -9.46293E-06
              17     3.55386E-03    -9.50510E-06
              18     3.54249E-03    -9.53625E-06
              19     3.53155E-03    -9.55961E-06
              20     3.52103E-03    -9.57790E-06
              21     3.51092E-03    -9.59251E-06
              22     3.50121E-03    -9.60064E-06
              23     3.61717E-03    -19.2035E-06
              24     3.60362E-03    -18.9082E-06
              25     3.59053E-03    -18.8426E-06
              26     3.57785E-03    -18.8958E-06
              27     3.56561E-03    -18.9701E-06
              28     3.55382E-03    -19.0358E-06
              29     3.54247E-03    -19.0877E-06
              30     3.53155E-03    -19.1280E-06
              31     3.52104E-03    -19.1603E-06
              32     3.51093E-03    -19.1872E-06
              33     3.50122E-03    -19.2078E-06
              34     3.61691E-03    -28.5913E-06
              35     3.60334E-03    -28.4466E-06
              36     3.59029E-03    -28.4069E-06
              37     3.57768E-03    -28.4520E-06
              38     3.56551E-03    -28.5271E-06
              39     3.55377E-03    -28.5998E-06
              40     3.54246E-03    -28.6600E-06
              41     3.53155E-03    -28.7082E-06
              42     3.52106E-03    -28.7485E-06
              43     3.51095E-03    -28.7851E-06
              44     3.50124E-03    -28.8193E-06
              45     3.61680E-03    -37.9730E-06
              46     3.60322E-03    -37.9445E-06
              47     3.59017E-03    -37.9719E-06
              48     3.57760E-03    -38.0405E-06
              49     3.56547E-03    -38.1209E-06
              50     3.55377E-03    -38.1933E-06
              51     3.54247E-03    -38.2520E-06
              52     3.53159E-03    -38.2997E-06
              53     3.52110E-03    -38.3420E-06
              54     3.51100E-03    -38.3848E-06
              55     3.50128E-03    -38.4330E-06
              56     3.61680E-03    -47.3405E-06
              57     3.60322E-03    -47.4206E-06
              58     3.59017E-03    -47.5334E-06
              59     3.57761E-03    -47.6455E-06
              60     3.56550E-03    -47.7378E-06
              61     3.55381E-03    -47.8066E-06
              62     3.54253E-03    -47.8573E-06
              63     3.53165E-03    -47.8980E-06
              64     3.52116E-03    -47.9372E-06
              65     3.51106E-03    -47.9829E-06
              66     3.50135E-03    -48.0436E-06
              67     3.61691E-03    -56.6822E-06
              68     3.60332E-03    -56.8861E-06
              69     3.59028E-03    -57.1028E-06
              70     3.57773E-03    -57.2658E-06
              71     3.56562E-03    -57.3681E-06
              72     3.55393E-03    -57.4282E-06
              73     3.54264E-03    -57.4658E-06
              74     3.53175E-03    -57.4958E-06
              75     3.52125E-03    -57.5291E-06
              76     3.51115E-03    -57.5748E-06
              77     3.50143E-03    -57.6441E-06
              78     3.61714E-03    -65.9739E-06
              79     3.60354E-03    -66.3542E-06
              80     3.59051E-03    -66.6978E-06
              81     3.57796E-03    -66.9016E-06
              82     3.56582E-03    -66.9999E-06
              83     3.55410E-03    -67.0434E-06
              84     3.54278E-03    -67.0652E-06
              85     3.53187E-03    -67.0844E-06
              86     3.52136E-03    -67.1119E-06
              87     3.51124E-03    -67.1562E-06
              88     3.50152E-03    -67.2282E-06
              89     3.61756E-03    -75.1522E-06
              90     3.60396E-03    -75.8588E-06
              91     3.59094E-03    -76.3335E-06
              92     3.57832E-03    -76.5366E-06
              93     3.56610E-03    -76.6099E-06
              94     3.55430E-03    -76.6333E-06
              95     3.54294E-03    -76.6428E-06
              96     3.53200E-03    -76.6557E-06
              97     3.52147E-03    -76.6811E-06
              98     3.51134E-03    -76.7249E-06
              99     3.50161E-03    -76.7933E-06
             100     3.61840E-03    -84.0326E-06
             101     3.60484E-03    -85.4767E-06
             102     3.59160E-03    -85.9633E-06
             103     3.57875E-03    -86.1120E-06
             104     3.56638E-03    -86.1629E-06
             105     3.55449E-03    -86.1807E-06
             106     3.54308E-03    -86.1909E-06
             107     3.53210E-03    -86.2065E-06
             108     3.52156E-03    -86.2357E-06
             109     3.51142E-03    -86.2821E-06
             110     3.50168E-03    -86.3427E-06
             111     3.62257E-03    -92.6149E-06
             112     3.60637E-03    -94.9371E-06
             113     3.59221E-03    -95.3755E-06
             114     3.57904E-03    -95.5594E-06
             115     3.56654E-03    -95.6450E-06
             116     3.55459E-03    -95.6879E-06
             117     3.54315E-03    -95.7155E-06
             118     3.53216E-03    -95.7433E-06
             119     3.52162E-03    -95.7807E-06
             120     3.51148E-03    -95.8318E-06
             121     3.50173E-03    -95.8861E-06
             122     3.61223E-03    -2.12233E-36
             123     3.60461E-03    -4.55481E-06
             124     3.61140E-03    -4.53850E-06
             125     3.61092E-03    -9.41628E-06
             126     3.61833E-03    -5.24979E-06
             127     3.59785E-03     4.85822E-36
             128     3.59106E-03    -4.64997E-06
             129     3.59771E-03    -4.59825E-06
             130     3.59750E-03    -9.30877E-06
             131     3.58454E-03     3.60721E-36
             132     3.57814E-03    -4.69938E-06
             133     3.58450E-03    -4.67026E-06
             134     3.58441E-03    -9.38317E-06
             135     3.57188E-03     2.37746E-36
             136     3.56577E-03    -4.73052E-06
             137     3.57187E-03    -4.71040E-06
             138     3.57182E-03    -9.44475E-06
             139     3.55977E-03     1.29456E-36
             140     3.55391E-03    -4.75251E-06
             141     3.55976E-03    -4.73776E-06
             142     3.55974E-03    -9.49170E-06
             143     3.54814E-03     384.984E-39
             144     3.54252E-03    -4.76846E-06
             145     3.54814E-03    -4.75738E-06
             146     3.54813E-03    -9.52669E-06
             147     3.53698E-03    -366.834E-39
             148     3.53157E-03    -4.78034E-06
             149     3.53698E-03    -4.77171E-06
             150     3.53697E-03    -9.55272E-06
             151     3.52625E-03    -999.211E-39
             152     3.52106E-03    -4.78963E-06
             153     3.52625E-03    -4.78256E-06
             154     3.52625E-03    -9.57268E-06
             155     3.51594E-03    -1.54587E-36
             156     3.51095E-03    -4.79710E-06
             157     3.51594E-03    -4.79127E-06
             158     3.51594E-03    -9.58868E-06
             159     3.50603E-03    -1.95090E-36
             160     3.50123E-03    -4.79933E-06
             161     3.50603E-03    -4.79829E-06
             162     3.50603E-03    -9.60093E-06
             163     3.60387E-03    -14.1190E-06
             164     3.61056E-03    -14.2314E-06
             165     3.61034E-03    -19.0244E-06
             166     3.61743E-03    -14.5236E-06
             167     3.59072E-03    -14.0773E-06
             168     3.59723E-03    -14.0651E-06
             169     3.59704E-03    -18.8493E-06
             170     3.57797E-03    -14.1440E-06
             171     3.58427E-03    -14.1052E-06
             172     3.58415E-03    -18.8677E-06
             173     3.56569E-03    -14.2132E-06
             174     3.57175E-03    -14.1771E-06
             175     3.57168E-03    -18.9399E-06
             176     3.55387E-03    -14.2691E-06
             177     3.55970E-03    -14.2403E-06
             178     3.55967E-03    -19.0109E-06
             179     3.54250E-03    -14.3118E-06
             180     3.54811E-03    -14.2897E-06
             181     3.54810E-03    -19.0688E-06
             182     3.53157E-03    -14.3443E-06
             183     3.53697E-03    -14.3271E-06
             184     3.53696E-03    -19.1136E-06
             185     3.52106E-03    -14.3700E-06
             186     3.52625E-03    -14.3561E-06
             187     3.52625E-03    -19.1487E-06
             188     3.51095E-03    -14.3908E-06
             189     3.51594E-03    -14.3795E-06
             190     3.51594E-03    -19.1778E-06
             191     3.50123E-03    -14.4050E-06
             192     3.50603E-03    -14.3976E-06
             193     3.50603E-03    -19.2018E-06
             194     3.60348E-03    -23.6891E-06
             195     3.61018E-03    -23.7641E-06
             196     3.61007E-03    -28.5117E-06
             197     3.61705E-03    -23.9047E-06
             198     3.59041E-03    -23.6262E-06
             199     3.59688E-03    -23.6303E-06
             200     3.59677E-03    -28.4147E-06
             201     3.57778E-03    -23.6708E-06
             202     3.58403E-03    -23.6381E-06
             203     3.58394E-03    -28.4265E-06
             204     3.56558E-03    -23.7456E-06
             205     3.57161E-03    -23.7057E-06
             206     3.57155E-03    -28.4938E-06
             207     3.55382E-03    -23.8159E-06
             208     3.55963E-03    -23.7808E-06
             209     3.55960E-03    -28.5702E-06
             210     3.54248E-03    -23.8730E-06
             211     3.54808E-03    -23.8449E-06
             212     3.54807E-03    -28.6364E-06
             213     3.53157E-03    -23.9182E-06
             214     3.53696E-03    -23.8957E-06
             215     3.53696E-03    -28.6895E-06
             216     3.52107E-03    -23.9551E-06
             217     3.52626E-03    -23.9362E-06
             218     3.52626E-03    -28.7326E-06
             219     3.51096E-03    -23.9872E-06
             220     3.51595E-03    -23.9703E-06
             221     3.51596E-03    -28.7704E-06
             222     3.50125E-03    -24.0145E-06
             223     3.50605E-03    -24.0001E-06
             224     3.50606E-03    -28.8058E-06
             225     3.60329E-03    -33.2042E-06
             226     3.61000E-03    -33.2277E-06
             227     3.60996E-03    -37.9570E-06
             228     3.61687E-03    -33.2888E-06
             229     3.59024E-03    -33.1938E-06
             230     3.59669E-03    -33.1809E-06
             231     3.59665E-03    -37.9556E-06
             232     3.57765E-03    -33.2464E-06
             233     3.58388E-03    -33.2108E-06
             234     3.58384E-03    -38.0077E-06
             235     3.56551E-03    -33.3225E-06
             236     3.57151E-03    -33.2820E-06
             237     3.57149E-03    -38.0857E-06
             238     3.55379E-03    -33.3951E-06
             239     3.55958E-03    -33.3594E-06
             240     3.55958E-03    -38.1633E-06
             241     3.54248E-03    -33.4553E-06
             242     3.54807E-03    -33.4263E-06
             243     3.54808E-03    -38.2284E-06
             244     3.53159E-03    -33.5040E-06
             245     3.53697E-03    -33.4802E-06
             246     3.53699E-03    -38.2804E-06
             247     3.52110E-03    -33.5460E-06
             248     3.52628E-03    -33.5247E-06
             249     3.52630E-03    -38.3242E-06
             250     3.51099E-03    -33.5863E-06
             251     3.51598E-03    -33.5650E-06
             252     3.51601E-03    -38.3658E-06
             253     3.50128E-03    -33.6278E-06
             254     3.50608E-03    -33.6052E-06
             255     3.50610E-03    -38.4110E-06
             256     3.60324E-03    -42.6896E-06
             257     3.60994E-03    -42.6610E-06
             258     3.60995E-03    -47.3795E-06
             259     3.61682E-03    -42.6641E-06
             260     3.59018E-03    -42.7565E-06
             261     3.59663E-03    -42.7111E-06
             262     3.59664E-03    -47.4816E-06
             263     3.57762E-03    -42.8438E-06
             264     3.58383E-03    -42.7951E-06
             265     3.58384E-03    -47.5973E-06
             266     3.56550E-03    -42.9287E-06
             267     3.57149E-03    -42.8862E-06
             268     3.57151E-03    -47.6996E-06
             269     3.55380E-03    -42.9993E-06
             270     3.55959E-03    -42.9659E-06
             271     3.55962E-03    -47.7788E-06
             272     3.54252E-03    -43.0545E-06
             273     3.54810E-03    -43.0287E-06
             274     3.54813E-03    -47.8369E-06
             275     3.53164E-03    -43.0994E-06
             276     3.53702E-03    -43.0777E-06
             277     3.53705E-03    -47.8811E-06
             278     3.52115E-03    -43.1407E-06
             279     3.52633E-03    -43.1195E-06
             280     3.52637E-03    -47.9198E-06
             281     3.51105E-03    -43.1857E-06
             282     3.51604E-03    -43.1612E-06
             283     3.51607E-03    -47.9611E-06
             284     3.50133E-03    -43.2409E-06
             285     3.50613E-03    -43.2097E-06
             286     3.50616E-03    -48.0131E-06
             287     3.60328E-03    -52.1599E-06
             288     3.60999E-03    -52.0727E-06
             289     3.61006E-03    -56.7821E-06
             290     3.61687E-03    -52.0212E-06
             291     3.59024E-03    -52.3201E-06
             292     3.59668E-03    -52.2333E-06
             293     3.59675E-03    -57.0080E-06
             294     3.57768E-03    -52.4556E-06
             295     3.58388E-03    -52.3894E-06
             296     3.58396E-03    -57.1999E-06
             297     3.56557E-03    -52.5527E-06
             298     3.57156E-03    -52.5085E-06
             299     3.57163E-03    -57.3282E-06
             300     3.55388E-03    -52.6176E-06
             301     3.55967E-03    -52.5891E-06
             302     3.55973E-03    -57.4049E-06
             303     3.54260E-03    -52.6623E-06
             304     3.54818E-03    -52.6423E-06
             305     3.54824E-03    -57.4508E-06
             306     3.53172E-03    -52.6982E-06
             307     3.53710E-03    -52.6808E-06
             308     3.53715E-03    -57.4829E-06
             309     3.52123E-03    -52.7348E-06
             310     3.52641E-03    -52.7154E-06
             311     3.52646E-03    -57.5134E-06
             312     3.51112E-03    -52.7811E-06
             313     3.51612E-03    -52.7551E-06
             314     3.51616E-03    -57.5517E-06
             315     3.50140E-03    -52.8473E-06
             316     3.50621E-03    -52.8090E-06
             317     3.50625E-03    -57.6073E-06
             318     3.60344E-03    -61.6261E-06
             319     3.61015E-03    -61.4614E-06
             320     3.61028E-03    -66.1629E-06
             321     3.61703E-03    -61.3449E-06
             322     3.59040E-03    -61.8992E-06
             323     3.59684E-03    -61.7650E-06
             324     3.59698E-03    -66.5562E-06
             325     3.57785E-03    -62.0826E-06
             326     3.58406E-03    -62.0025E-06
             327     3.58419E-03    -66.8236E-06
             328     3.56573E-03    -62.1845E-06
             329     3.57173E-03    -62.1434E-06
             330     3.57185E-03    -66.9631E-06
             331     3.55403E-03    -62.2373E-06
             332     3.55982E-03    -62.2168E-06
             333     3.55992E-03    -67.0271E-06
             334     3.54273E-03    -62.2675E-06
             335     3.54832E-03    -62.2549E-06
             336     3.54839E-03    -67.0565E-06
             337     3.53183E-03    -62.2923E-06
             338     3.53722E-03    -62.2799E-06
             339     3.53728E-03    -67.0756E-06
             340     3.52133E-03    -62.3228E-06
             341     3.52652E-03    -62.3057E-06
             342     3.52657E-03    -67.0980E-06
             343     3.51122E-03    -62.3681E-06
             344     3.51621E-03    -62.3419E-06
             345     3.51626E-03    -67.1330E-06
             346     3.50149E-03    -62.4400E-06
             347     3.50630E-03    -62.3980E-06
             348     3.50634E-03    -67.1891E-06
             349     3.60375E-03    -71.1078E-06
             350     3.61045E-03    -70.8230E-06
             351     3.61070E-03    -75.5317E-06
             352     3.61735E-03    -70.6031E-06
             353     3.59072E-03    -71.5108E-06
             354     3.59716E-03    -71.3336E-06
             355     3.59741E-03    -76.1552E-06
             356     3.57814E-03    -71.7191E-06
             357     3.58437E-03    -71.6400E-06
             358     3.58458E-03    -76.4603E-06
             359     3.56597E-03    -71.8078E-06
             360     3.57200E-03    -71.7775E-06
             361     3.57216E-03    -76.5816E-06
             362     3.55422E-03    -71.8419E-06
             363     3.56004E-03    -71.8310E-06
             364     3.56015E-03    -76.6243E-06
             365     3.54288E-03    -71.8574E-06
             366     3.54849E-03    -71.8512E-06
             367     3.54857E-03    -76.6388E-06
             368     3.53195E-03    -71.8730E-06
             369     3.53736E-03    -71.8642E-06
             370     3.53742E-03    -76.6492E-06
             371     3.52144E-03    -71.8992E-06
             372     3.52663E-03    -71.8835E-06
             373     3.52669E-03    -76.6680E-06
             374     3.51132E-03    -71.9432E-06
             375     3.51632E-03    -71.9174E-06
             376     3.51636E-03    -76.7022E-06
             377     3.50158E-03    -72.0142E-06
             378     3.50639E-03    -71.9731E-06
             379     3.50643E-03    -76.7568E-06
             380     3.60433E-03    -80.6515E-06
             381     3.61102E-03    -80.1813E-06
             382     3.61160E-03    -84.9829E-06
             383     3.61795E-03    -79.7197E-06
             384     3.59125E-03    -81.1483E-06
             385     3.59775E-03    -80.9711E-06
             386     3.59818E-03    -85.7824E-06
             387     3.57855E-03    -81.3313E-06
             388     3.58485E-03    -81.2737E-06
             389     3.58511E-03    -86.0476E-06
             390     3.56627E-03    -81.3930E-06
             391     3.57235E-03    -81.3749E-06
             392     3.57250E-03    -86.1409E-06
             393     3.55443E-03    -81.4122E-06
             394     3.56028E-03    -81.4065E-06
             395     3.56038E-03    -86.1739E-06
             396     3.54304E-03    -81.4208E-06
             397     3.54867E-03    -81.4164E-06
             398     3.54873E-03    -86.1870E-06
             399     3.53208E-03    -81.4344E-06
             400     3.53749E-03    -81.4254E-06
             401     3.53754E-03    -86.1993E-06
             402     3.52154E-03    -81.4612E-06
             403     3.52674E-03    -81.4445E-06
             404     3.52678E-03    -86.2212E-06
             405     3.51141E-03    -81.5058E-06
             406     3.51641E-03    -81.4798E-06
             407     3.51645E-03    -86.2590E-06
             408     3.50167E-03    -81.5702E-06
             409     3.50648E-03    -81.5345E-06
             410     3.50651E-03    -86.3130E-06
             411     3.60552E-03    -90.2383E-06
             412     3.61254E-03    -89.7131E-06
             413     3.61378E-03    -94.2575E-06
             414     3.61931E-03    -88.3710E-06
             415     3.59198E-03    -90.6961E-06
             416     3.59874E-03    -90.5692E-06
             417     3.59906E-03    -95.1983E-06
             418     3.57896E-03    -90.8483E-06
             419     3.58540E-03    -90.7947E-06
             420     3.58553E-03    -95.4921E-06
             421     3.56651E-03    -90.9108E-06
             422     3.57266E-03    -90.8862E-06
             423     3.57272E-03    -95.6155E-06
             424     3.55459E-03    -90.9386E-06
             425     3.56048E-03    -90.9261E-06
             426     3.56051E-03    -95.6742E-06
             427     3.54315E-03    -90.9562E-06
             428     3.54880E-03    -90.9462E-06
             429     3.54882E-03    -95.7065E-06
             430     3.53216E-03    -90.9772E-06
             431     3.53759E-03    -90.9640E-06
             432     3.53761E-03    -95.7324E-06
             433     3.52161E-03    -91.0102E-06
             434     3.52683E-03    -90.9902E-06
             435     3.52685E-03    -95.7638E-06
             436     3.51148E-03    -91.0589E-06
             437     3.51648E-03    -91.0311E-06
             438     3.51651E-03    -95.8074E-06
             439     3.50173E-03    -91.1139E-06
             440     3.50655E-03    -91.0870E-06
             441     3.50657E-03    -95.8626E-06


  Minimum            3.50121E-03    -95.8861E-06
         At Node              22             121

  Maximum            3.62257E-03     8.60200E-36
         At Node             111               2

           Total         1.56822    -21.0546E-03


********************************************************************************
Field Output Report, written Wed Mar 07 18:23:54 2018

Source 1
---------

   ODB: C:/Users/Wagner/Desktop/Projeto FEM/FEM-matlab/Benchmarks/Vaso de Pressao/Job-1.odb
   Step: Step-1
   Frame: Increment      1: Step Time =    1.000

Loc 1 : Integration point values from source 1

Output sorted by column "Element Label".

Field Output reported at integration points for part: PART-1-1

         Element             Int           S.S11
           Label              Pt          @Loc 1
-------------------------------------------------
               1               1    -106.166E-03
               1               2    -87.1346E-03
               1               3    -66.2872E-03
               2               1    -67.0520E-03
               2               2    -61.5345E-03
               2               3    -73.4563E-03
               3               1    -73.8778E-03
               3               2    -68.3611E-03
               3               3    -65.3940E-03
               4               1    -65.6562E-03
               4               2    -67.7373E-03
               4               3    -71.6432E-03
               5               1    -63.4727E-03
               5               2    -60.5058E-03
               5               3    -59.8377E-03
               6               1    -60.1527E-03
               6               2    -62.6426E-03
               6               3    -64.0714E-03
               7               1    -57.3311E-03
               7               2    -55.0501E-03
               7               3    -54.7732E-03
               8               1    -55.2107E-03
               8               2    -57.4041E-03
               8               3    -58.0761E-03
               9               1    -52.4186E-03
               9               2    -50.4337E-03
               9               3    -50.2673E-03
              10               1    -50.7646E-03
              10               2    -52.7350E-03
              10               3    -53.0978E-03
              11               1    -48.0653E-03
              11               2    -46.2467E-03
              11               3    -46.1260E-03
              12               1    -46.6431E-03
              12               2    -48.4675E-03
              12               3    -48.6887E-03
              13               1    -44.0369E-03
              13               2    -42.3264E-03
              13               3    -42.2290E-03
              14               1    -42.7486E-03
              14               2    -44.4716E-03
              14               3    -44.6217E-03
              15               1    -40.2256E-03
              15               2    -38.5928E-03
              15               3    -38.5087E-03
              16               1    -39.0238E-03
              16               2    -40.6713E-03
              16               3    -40.7823E-03
              17               1    -36.5735E-03
              17               2    -35.0008E-03
              17               3    -34.9253E-03
              18               1    -35.4332E-03
              18               2    -37.0212E-03
              18               3    -37.1086E-03
              19               1    -33.0468E-03
              19               2    -31.5229E-03
              19               3    -31.4534E-03
              20               1    -31.9530E-03
              20               2    -33.4920E-03
              20               3    -33.5644E-03
              21               1    -29.6234E-03
              21               2    -28.1408E-03
              21               3    -28.0756E-03
              22               1    -28.5669E-03
              22               2    -30.0642E-03
              22               3    -30.1264E-03
              23               1    -26.2882E-03
              23               2    -24.8413E-03
              23               3    -24.7794E-03
              24               1    -25.2625E-03
              24               2    -26.7236E-03
              24               3    -26.7785E-03
              25               1    -23.0299E-03
              25               2    -21.6145E-03
              25               3    -21.5553E-03
              26               1    -22.0307E-03
              26               2    -23.4597E-03
              26               3    -23.5091E-03
              27               1    -19.8400E-03
              27               2    -18.4527E-03
              27               3    -18.3958E-03
              28               1    -18.8638E-03
              28               2    -20.2641E-03
              28               3    -20.3092E-03
              29               1    -16.7115E-03
              29               2    -15.3497E-03
              29               3    -15.2946E-03
              30               1    -15.7557E-03
              30               2    -17.1301E-03
              30               3    -17.1718E-03
              31               1    -13.6388E-03
              31               2    -12.3002E-03
              31               3    -12.2468E-03
              32               1    -12.7015E-03
              32               2    -14.0522E-03
              32               3    -14.0909E-03
              33               1    -10.6171E-03
              33               2    -9.29978E-03
              33               3    -9.24809E-03
              34               1    -9.69702E-03
              34               2    -11.0258E-03
              34               3    -11.0618E-03
              35               1    -7.64231E-03
              35               2    -6.34427E-03
              35               3    -6.29510E-03
              36               1    -6.73930E-03
              36               2    -8.04750E-03
              36               3    -8.08024E-03
              37               1    -4.70838E-03
              37               2    -3.42554E-03
              37               3    -3.38869E-03
              38               1    -3.82832E-03
              38               2    -5.11541E-03
              38               3    -5.14233E-03
              39               1    -1.79309E-03
              39               2    -512.556E-06
              39               3    -566.843E-06
              40               1    -973.013E-06
              40               2    -2.23255E-03
              40               3    -2.25027E-03
              41               1    -62.7119E-03
              41               2    -62.5836E-03
              41               3    -61.4299E-03
              42               1    -61.5662E-03
              42               2    -62.8863E-03
              42               3    -63.0309E-03
              43               1    -63.9565E-03
              43               2    -62.8797E-03
              43               3    -60.0112E-03
              44               1    -60.0422E-03
              44               2    -60.5788E-03
              44               3    -62.0144E-03
              45               1    -60.7016E-03
              45               2    -58.7223E-03
              45               3    -57.2214E-03
              46               1    -57.4026E-03
              46               2    -58.7493E-03
              46               3    -60.0961E-03
              47               1    -56.2056E-03
              47               2    -54.2477E-03
              47               3    -53.4839E-03
              48               1    -53.7937E-03
              48               2    -55.4679E-03
              48               3    -56.3383E-03
              49               1    -51.8593E-03
              49               2    -50.0051E-03
              49               3    -49.5693E-03
              50               1    -49.9637E-03
              50               2    -51.6910E-03
              50               3    -52.2442E-03
              51               1    -47.7523E-03
              51               2    -45.9916E-03
              51               3    -45.7140E-03
              52               1    -46.1550E-03
              52               2    -47.8543E-03
              52               3    -48.2211E-03
              53               1    -43.8464E-03
              53               2    -42.1621E-03
              53               3    -41.9690E-03
              54               1    -42.4329E-03
              54               2    -44.0856E-03
              54               3    -44.3425E-03
              55               1    -40.1021E-03
              55               2    -38.4804E-03
              55               3    -38.3365E-03
              56               1    -38.8100E-03
              56               2    -40.4148E-03
              56               3    -40.6044E-03
              57               1    -36.4899E-03
              57               2    -34.9205E-03
              57               3    -34.8073E-03
              58               1    -35.2833E-03
              58               2    -36.8435E-03
              58               3    -36.9900E-03
              59               1    -32.9883E-03
              59               2    -31.4636E-03
              59               3    -31.3707E-03
              60               1    -31.8453E-03
              60               2    -33.3651E-03
              60               3    -33.4828E-03
              61               1    -29.5817E-03
              61               2    -28.0959E-03
              61               3    -28.0171E-03
              62               1    -28.4883E-03
              62               2    -29.9717E-03
              62               3    -30.0691E-03
              63               1    -26.2582E-03
              63               2    -24.8067E-03
              63               3    -24.7382E-03
              64               1    -25.2049E-03
              64               2    -26.6554E-03
              64               3    -26.7381E-03
              65               1    -23.0084E-03
              65               2    -21.5876E-03
              65               3    -21.5269E-03
              66               1    -21.9885E-03
              66               2    -23.4092E-03
              66               3    -23.4808E-03
              67               1    -19.8249E-03
              67               2    -18.4318E-03
              67               3    -18.3771E-03
              68               1    -18.8335E-03
              68               2    -20.2270E-03
              68               3    -20.2901E-03
              69               1    -16.7014E-03
              69               2    -15.3335E-03
              69               3    -15.2837E-03
              70               1    -15.7348E-03
              70               2    -17.1034E-03
              70               3    -17.1596E-03
              71               1    -13.6328E-03
              71               2    -12.2881E-03
              71               3    -12.2425E-03
              72               1    -12.6885E-03
              72               2    -14.0340E-03
              72               3    -14.0845E-03
              73               1    -10.6150E-03
              73               2    -9.29196E-03
              73               3    -9.25041E-03
              74               1    -9.69116E-03
              74               2    -11.0150E-03
              74               3    -11.0607E-03
              75               1    -7.64488E-03
              75               2    -6.34288E-03
              75               3    -6.30592E-03
              76               1    -6.74099E-03
              76               2    -8.04383E-03
              76               3    -8.08515E-03
              77               1    -4.72178E-03
              77               2    -3.44198E-03
              77               3    -3.40996E-03
              78               1    -3.83768E-03
              78               2    -5.11945E-03
              78               3    -5.15728E-03
              79               1    -1.85242E-03
              79               2    -595.862E-06
              79               3    -557.905E-06
              80               1    -980.118E-06
              80               2    -2.24163E-03
              80               3    -2.27946E-03
              81               1    -62.3728E-03
              81               2    -60.9438E-03
              81               3    -60.8126E-03
              82               1    -61.2873E-03
              82               2    -62.8742E-03
              82               3    -62.9358E-03
              83               1    -59.7994E-03
              83               2    -58.8679E-03
              83               3    -58.0449E-03
              84               1    -58.2928E-03
              84               2    -59.4957E-03
              84               3    -59.8666E-03
              85               1    -57.5204E-03
              85               2    -56.2453E-03
              85               3    -55.2975E-03
              86               1    -55.5334E-03
              86               2    -56.7588E-03
              86               3    -57.4091E-03
              87               1    -54.3991E-03
              87               2    -52.8478E-03
              87               3    -52.1274E-03
              88               1    -52.4291E-03
              88               2    -53.8464E-03
              88               3    -54.4777E-03
              89               1    -50.8095E-03
              89               2    -49.1749E-03
              89               3    -48.6731E-03
              90               1    -49.0361E-03
              90               2    -50.5690E-03
              90               3    -51.0722E-03
              91               1    -47.1068E-03
              91               2    -45.4700E-03
              91               3    -45.1175E-03
              92               1    -45.5235E-03
              92               2    -47.0958E-03
              92               3    -47.4775E-03
              93               1    -43.4282E-03
              93               2    -41.8178E-03
              93               3    -41.5617E-03
              94               1    -41.9944E-03
              94               2    -43.5655E-03
              94               3    -43.8548E-03
              95               1    -39.8192E-03
              95               2    -38.2441E-03
              95               3    -38.0509E-03
              96               1    -38.4987E-03
              96               2    -40.0500E-03
              96               3    -40.2732E-03
              97               1    -36.2918E-03
              97               2    -34.7534E-03
              97               3    -34.6025E-03
              98               1    -35.0580E-03
              98               2    -36.5820E-03
              98               3    -36.7581E-03
              99               1    -32.8461E-03
              99               2    -31.3431E-03
              99               3    -31.2215E-03
             100               1    -31.6800E-03
             100               2    -33.1745E-03
             100               3    -33.3166E-03
             101               1    -29.4780E-03
             101               2    -28.0079E-03
             101               3    -27.9076E-03
             102               1    -28.3661E-03
             102               2    -29.8312E-03
             102               3    -29.9482E-03
             103               1    -26.1819E-03
             103               2    -24.7423E-03
             103               3    -24.6577E-03
             104               1    -25.1144E-03
             104               2    -26.5514E-03
             104               3    -26.6494E-03
             105               1    -22.9524E-03
             105               2    -21.5409E-03
             105               3    -21.4683E-03
             106               1    -21.9221E-03
             106               2    -23.3325E-03
             106               3    -23.4160E-03
             107               1    -19.7843E-03
             107               2    -18.3987E-03
             107               3    -18.3354E-03
             108               1    -18.7857E-03
             108               2    -20.1711E-03
             108               3    -20.2432E-03
             109               1    -16.6728E-03
             109               2    -15.3112E-03
             109               3    -15.2555E-03
             110               1    -15.7018E-03
             110               2    -17.0639E-03
             110               3    -17.1268E-03
             111               1    -13.6140E-03
             111               2    -12.2748E-03
             111               3    -12.2253E-03
             112               1    -12.6674E-03
             112               2    -14.0076E-03
             112               3    -14.0631E-03
             113               1    -10.6047E-03
             113               2    -9.28672E-03
             113               3    -9.24248E-03
             114               1    -9.67990E-03
             114               2    -10.9994E-03
             114               3    -11.0487E-03
             115               1    -7.64249E-03
             115               2    -6.34512E-03
             115               3    -6.30509E-03
             116               1    -6.73732E-03
             116               2    -8.03690E-03
             116               3    -8.08151E-03
             117               1    -4.72652E-03
             117               2    -3.44927E-03
             117               3    -3.41129E-03
             118               1    -3.83795E-03
             118               2    -5.11843E-03
             118               3    -5.15988E-03
             119               1    -1.85540E-03
             119               2    -596.459E-06
             119               3    -558.058E-06
             120               1    -980.052E-06
             120               2    -2.24209E-03
             120               3    -2.28185E-03
             121               1    -62.3696E-03
             121               2    -60.7713E-03
             121               3    -60.7041E-03
             122               1    -61.2403E-03
             122               2    -62.8706E-03
             122               3    -62.9340E-03
             123               1    -58.9887E-03
             123               2    -57.6634E-03
             123               3    -57.3937E-03
             124               1    -57.8101E-03
             124               2    -59.2688E-03
             124               3    -59.4203E-03
             125               1    -56.0545E-03
             125               2    -54.7694E-03
             125               3    -54.3098E-03
             126               1    -54.6609E-03
             126               2    -56.0236E-03
             126               3    -56.3257E-03
             127               1    -53.0559E-03
             127               2    -51.6554E-03
             127               3    -51.1712E-03
             128               1    -51.5218E-03
             128               2    -52.9141E-03
             128               3    -53.2951E-03
             129               1    -49.8063E-03
             129               2    -48.3139E-03
             129               3    -47.8954E-03
             130               1    -48.2700E-03
             130               2    -49.7224E-03
             130               3    -50.0957E-03
             131               1    -46.3930E-03
             131               2    -44.8607E-03
             131               3    -44.5243E-03
             132               1    -44.9245E-03
             132               2    -46.4167E-03
             132               3    -46.7428E-03
             133               1    -42.9211E-03
             133               2    -41.3836E-03
             133               3    -41.1179E-03
             134               1    -41.5383E-03
             134               2    -43.0445E-03
             134               3    -43.3165E-03
             135               1    -39.4545E-03
             135               2    -37.9301E-03
             135               3    -37.7195E-03
             136               1    -38.1537E-03
             136               2    -39.6557E-03
             136               3    -39.8791E-03
             137               1    -36.0259E-03
             137               2    -34.5233E-03
             137               3    -34.3543E-03
             138               1    -34.7971E-03
             138               2    -36.2842E-03
             138               3    -36.4675E-03
             139               1    -32.6500E-03
             139               2    -31.1727E-03
             139               3    -31.0351E-03
             140               1    -31.4826E-03
             140               2    -32.9494E-03
             140               3    -33.1007E-03
             141               1    -29.3323E-03
             141               2    -27.8813E-03
             141               3    -27.7675E-03
             142               1    -28.2169E-03
             142               2    -29.6610E-03
             142               3    -29.7870E-03
             143               1    -26.0736E-03
             143               2    -24.6484E-03
             143               3    -24.5530E-03
             144               1    -25.0024E-03
             144               2    -26.4231E-03
             144               3    -26.5290E-03
             145               1    -22.8723E-03
             145               2    -21.4720E-03
             145               3    -21.3910E-03
             146               1    -21.8389E-03
             146               2    -23.2367E-03
             146               3    -23.3266E-03
             147               1    -19.7260E-03
             147               2    -18.3492E-03
             147               3    -18.2797E-03
             148               1    -18.7253E-03
             148               2    -20.1008E-03
             148               3    -20.1778E-03
             149               1    -16.6318E-03
             149               2    -15.2772E-03
             149               3    -15.2169E-03
             150               1    -15.6595E-03
             150               2    -17.0137E-03
             150               3    -17.0804E-03
             151               1    -13.5868E-03
             151               2    -12.2534E-03
             151               3    -12.2005E-03
             152               1    -12.6396E-03
             152               2    -13.9735E-03
             152               3    -14.0318E-03
             153               1    -10.5887E-03
             153               2    -9.27528E-03
             153               3    -9.22843E-03
             154               1    -9.66360E-03
             154               2    -10.9781E-03
             154               3    -11.0296E-03
             155               1    -7.63520E-03
             155               2    -6.34103E-03
             155               3    -6.29867E-03
             156               1    -6.72945E-03
             156               2    -8.02548E-03
             156               3    -8.07178E-03
             157               1    -4.72460E-03
             157               2    -3.44870E-03
             157               3    -3.40916E-03
             158               1    -3.83527E-03
             158               2    -5.11375E-03
             158               3    -5.15631E-03
             159               1    -1.85488E-03
             159               2    -596.398E-06
             159               3    -557.863E-06
             160               1    -979.704E-06
             160               2    -2.24099E-03
             160               3    -2.28100E-03
             161               1    -62.3704E-03
             161               2    -60.7369E-03
             161               3    -60.6743E-03
             162               1    -61.2254E-03
             162               2    -62.8700E-03
             162               3    -62.9318E-03
             163               1    -58.7777E-03
             163               2    -57.2833E-03
             163               3    -57.1571E-03
             164               1    -57.6455E-03
             164               2    -59.1992E-03
             164               3    -59.2922E-03
             165               1    -55.4730E-03
             165               2    -54.0696E-03
             165               3    -53.8367E-03
             166               1    -54.2690E-03
             166               2    -55.7362E-03
             166               3    -55.9008E-03
             167               1    -52.2947E-03
             167               2    -50.8882E-03
             167               3    -50.5904E-03
             168               1    -50.9968E-03
             168               2    -52.4332E-03
             168               3    -52.6636E-03
             169               1    -49.0780E-03
             169               2    -47.6340E-03
             169               3    -47.3290E-03
             170               1    -47.7328E-03
             170               2    -49.1766E-03
             170               3    -49.4356E-03
             171               1    -45.7831E-03
             171               2    -44.3097E-03
             171               3    -44.0313E-03
             172               1    -44.4428E-03
             172               2    -45.9020E-03
             172               3    -46.1564E-03
             173               1    -42.4377E-03
             173               2    -40.9528E-03
             173               3    -40.7124E-03
             174               1    -41.1341E-03
             174               2    -42.6016E-03
             174               3    -42.8334E-03
             175               1    -39.0798E-03
             175               2    -37.5980E-03
             175               3    -37.3956E-03
             176               1    -37.8261E-03
             176               2    -39.2921E-03
             176               3    -39.4950E-03
             177               1    -35.7379E-03
             177               2    -34.2687E-03
             177               3    -34.0996E-03
             178               1    -34.5367E-03
             178               2    -35.9931E-03
             178               3    -36.1673E-03
             179               1    -32.4295E-03
             179               2    -30.9783E-03
             179               3    -30.8371E-03
             180               1    -31.2785E-03
             180               2    -32.7200E-03
             180               3    -32.8681E-03
             181               1    -29.1642E-03
             181               2    -27.7335E-03
             181               3    -27.6151E-03
             182               1    -28.0588E-03
             182               2    -29.4824E-03
             182               3    -29.6081E-03
             183               1    -25.9463E-03
             183               2    -24.5370E-03
             183               3    -24.4372E-03
             184               1    -24.8815E-03
             184               2    -26.2858E-03
             184               3    -26.3926E-03
             185               1    -22.7770E-03
             185               2    -21.3892E-03
             185               3    -21.3044E-03
             186               1    -21.7481E-03
             186               2    -23.1326E-03
             186               3    -23.2238E-03
             187               1    -19.6560E-03
             187               2    -18.2892E-03
             187               3    -18.2166E-03
             188               1    -18.6587E-03
             188               2    -20.0234E-03
             188               3    -20.1018E-03
             189               1    -16.5819E-03
             189               2    -15.2354E-03
             189               3    -15.1726E-03
             190               1    -15.6124E-03
             190               2    -16.9580E-03
             190               3    -17.0258E-03
             191               1    -13.5531E-03
             191               2    -12.2260E-03
             191               3    -12.1713E-03
             192               1    -12.6082E-03
             192               2    -13.9351E-03
             192               3    -13.9943E-03
             193               1    -10.5677E-03
             193               2    -9.25932E-03
             193               3    -9.21098E-03
             194               1    -9.64445E-03
             194               2    -10.9535E-03
             194               3    -11.0058E-03
             195               1    -7.62402E-03
             195               2    -6.33336E-03
             195               3    -6.28990E-03
             196               1    -6.71957E-03
             196               2    -8.01161E-03
             196               3    -8.05843E-03
             197               1    -4.72003E-03
             197               2    -3.44622E-03
             197               3    -3.40615E-03
             198               1    -3.83172E-03
             198               2    -5.10758E-03
             198               3    -5.15039E-03
             199               1    -1.85402E-03
             199               2    -596.336E-06
             199               3    -557.564E-06
             200               1    -979.413E-06
             200               2    -2.23957E-03
             200               3    -2.27959E-03
             201               1    -62.3690E-03
             201               2    -60.7239E-03
             201               3    -60.6637E-03
             202               1    -61.2190E-03
             202               2    -62.8701E-03
             202               3    -62.9297E-03
             203               1    -58.7061E-03
             203               2    -57.1420E-03
             203               3    -57.0585E-03
             204               1    -57.5773E-03
             204               2    -59.1714E-03
             204               3    -59.2449E-03
             205               1    -55.2268E-03
             205               2    -53.7405E-03
             205               3    -53.6030E-03
             206               1    -54.0809E-03
             206               2    -55.6087E-03
             206               3    -55.7177E-03
             207               1    -51.8902E-03
             207               2    -50.4402E-03
             207               3    -50.2515E-03
             208               1    -50.6998E-03
             208               2    -52.1820E-03
             208               3    -52.3338E-03
             209               1    -48.6087E-03
             209               2    -47.1626E-03
             209               3    -46.9477E-03
             210               1    -47.3811E-03
             210               2    -48.8424E-03
             210               3    -49.0245E-03
             211               1    -45.3278E-03
             211               2    -43.8755E-03
             211               3    -43.6594E-03
             212               1    -44.0884E-03
             212               2    -45.5425E-03
             212               3    -45.7357E-03
             213               1    -42.0360E-03
             213               2    -40.5805E-03
             213               3    -40.3788E-03
             214               1    -40.8091E-03
             214               2    -42.2592E-03
             214               3    -42.4476E-03
             215               1    -38.7433E-03
             215               2    -37.2913E-03
             215               3    -37.1113E-03
             216               1    -37.5448E-03
             216               2    -38.9886E-03
             216               3    -39.1628E-03
             217               1    -35.4644E-03
             217               2    -34.0221E-03
             217               3    -33.8654E-03
             218               1    -34.3023E-03
             218               2    -35.7362E-03
             218               3    -35.8919E-03
             219               1    -32.2117E-03
             219               2    -30.7834E-03
             219               3    -30.6487E-03
             220               1    -31.0883E-03
             220               2    -32.5092E-03
             220               3    -32.6456E-03
             221               1    -28.9934E-03
             221               2    -27.5817E-03
             221               3    -27.4666E-03
             222               1    -27.9079E-03
             222               2    -29.3135E-03
             222               3    -29.4317E-03
             223               1    -25.8143E-03
             223               2    -24.4207E-03
             223               3    -24.3224E-03
             224               1    -24.7643E-03
             224               2    -26.1533E-03
             224               3    -26.2552E-03
             225               1    -22.6768E-03
             225               2    -21.3017E-03
             225               3    -21.2176E-03
             226               1    -21.6590E-03
             226               2    -23.0308E-03
             226               3    -23.1187E-03
             227               1    -19.5816E-03
             227               2    -18.2251E-03
             227               3    -18.1527E-03
             228               1    -18.5928E-03
             228               2    -19.9471E-03
             228               3    -20.0232E-03
             229               1    -16.5284E-03
             229               2    -15.1902E-03
             229               3    -15.1274E-03
             230               1    -15.5655E-03
             230               2    -16.9025E-03
             230               3    -16.9688E-03
             231               1    -13.5164E-03
             231               2    -12.1960E-03
             231               3    -12.1411E-03
             232               1    -12.5765E-03
             232               2    -13.8966E-03
             232               3    -13.9548E-03
             233               1    -10.5445E-03
             233               2    -9.24125E-03
             233               3    -9.19267E-03
             234               1    -9.62493E-03
             234               2    -10.9286E-03
             234               3    -10.9802E-03
             235               1    -7.61111E-03
             235               2    -6.32425E-03
             235               3    -6.28056E-03
             236               1    -6.70938E-03
             236               2    -7.99732E-03
             236               3    -8.04379E-03
             237               1    -4.71454E-03
             237               2    -3.44320E-03
             237               3    -3.40295E-03
             238               1    -3.82808E-03
             238               2    -5.10116E-03
             238               3    -5.14375E-03
             239               1    -1.85305E-03
             239               2    -596.242E-06
             239               3    -557.220E-06
             240               1    -979.207E-06
             240               2    -2.23815E-03
             240               3    -2.27806E-03
             241               1    -62.3676E-03
             241               2    -60.7175E-03
             241               3    -60.6590E-03
             242               1    -61.2157E-03
             242               2    -62.8703E-03
             242               3    -62.9284E-03
             243               1    -58.6757E-03
             243               2    -57.0795E-03
             243               3    -57.0111E-03
             244               1    -57.5435E-03
             244               2    -59.1576E-03
             244               3    -59.2235E-03
             245               1    -55.1106E-03
             245               2    -53.5756E-03
             245               3    -53.4791E-03
             246               1    -53.9815E-03
             246               2    -55.5438E-03
             246               3    -55.6292E-03
             247               1    -51.6708E-03
             247               2    -50.1811E-03
             247               3    -50.0509E-03
             248               1    -50.5266E-03
             248               2    -52.0427E-03
             248               3    -52.1545E-03
             249               1    -48.3168E-03
             249               2    -46.8524E-03
             249               3    -46.6974E-03
             250               1    -47.1544E-03
             250               2    -48.6371E-03
             250               3    -48.7722E-03
             251               1    -45.0097E-03
             251               2    -43.5582E-03
             251               3    -43.3927E-03
             252               1    -43.8390E-03
             252               2    -45.2996E-03
             252               3    -45.4480E-03
             253               1    -41.7283E-03
             253               2    -40.2853E-03
             253               3    -40.1221E-03
             254               1    -40.5636E-03
             254               2    -42.0086E-03
             254               3    -42.1594E-03
             255               1    -38.4670E-03
             255               2    -37.0327E-03
             255               3    -36.8803E-03
             256               1    -37.3205E-03
             256               2    -38.7524E-03
             256               3    -38.8970E-03
             257               1    -35.2280E-03
             257               2    -33.8047E-03
             257               3    -33.6672E-03
             258               1    -34.1078E-03
             258               2    -35.5267E-03
             258               3    -35.6599E-03
             259               1    -32.0162E-03
             259               2    -30.6060E-03
             259               3    -30.4846E-03
             260               1    -30.9260E-03
             260               2    -32.3314E-03
             260               3    -32.4509E-03
             261               1    -28.8360E-03
             261               2    -27.4405E-03
             261               3    -27.3347E-03
             262               1    -27.7767E-03
             262               2    -29.1677E-03
             262               3    -29.2732E-03
             263               1    -25.6905E-03
             263               2    -24.3108E-03
             263               3    -24.2191E-03
             264               1    -24.6610E-03
             264               2    -26.0371E-03
             264               3    -26.1295E-03
             265               1    -22.5816E-03
             265               2    -21.2182E-03
             265               3    -21.1388E-03
             266               1    -21.5799E-03
             266               2    -22.9406E-03
             266               3    -23.0213E-03
             267               1    -19.5103E-03
             267               2    -18.1635E-03
             267               3    -18.0945E-03
             268               1    -18.5340E-03
             268               2    -19.8791E-03
             268               3    -19.9498E-03
             269               1    -16.4768E-03
             269               2    -15.1465E-03
             269               3    -15.0861E-03
             270               1    -15.5235E-03
             270               2    -16.8530E-03
             270               3    -16.9152E-03
             271               1    -13.4808E-03
             271               2    -12.1667E-03
             271               3    -12.1134E-03
             272               1    -12.5481E-03
             272               2    -13.8621E-03
             272               3    -13.9175E-03
             273               1    -10.5217E-03
             273               2    -9.22342E-03
             273               3    -9.17577E-03
             274               1    -9.60741E-03
             274               2    -10.9062E-03
             274               3    -10.9560E-03
             275               1    -7.59831E-03
             275               2    -6.31517E-03
             275               3    -6.27192E-03
             276               1    -6.70023E-03
             276               2    -7.98444E-03
             276               3    -8.02978E-03
             277               1    -4.70909E-03
             277               2    -3.44017E-03
             277               3    -3.39999E-03
             278               1    -3.82488E-03
             278               2    -5.09538E-03
             278               3    -5.13741E-03
             279               1    -1.85209E-03
             279               2    -596.105E-06
             279               3    -556.871E-06
             280               1    -979.118E-06
             280               2    -2.23692E-03
             280               3    -2.27662E-03
             281               1    -62.3664E-03
             281               2    -60.7135E-03
             281               3    -60.6560E-03
             282               1    -61.2133E-03
             282               2    -62.8704E-03
             282               3    -62.9277E-03
             283               1    -58.6596E-03
             283               2    -57.0467E-03
             283               3    -56.9840E-03
             284               1    -57.5230E-03
             284               2    -59.1488E-03
             284               3    -59.2118E-03
             285               1    -55.0486E-03
             285               2    -53.4850E-03
             285               3    -53.4067E-03
             286               1    -53.9222E-03
             286               2    -55.5054E-03
             286               3    -55.5804E-03
             287               1    -51.5445E-03
             287               2    -50.0263E-03
             287               3    -49.9270E-03
             288               1    -50.4194E-03
             288               2    -51.9584E-03
             288               3    -52.0500E-03
             289               1    -48.1337E-03
             289               2    -46.6505E-03
             289               3    -46.5328E-03
             290               1    -47.0064E-03
             290               2    -48.5067E-03
             290               3    -48.6139E-03
             291               1    -44.7934E-03
             291               2    -43.3351E-03
             291               3    -43.2069E-03
             292               1    -43.6675E-03
             292               2    -45.1368E-03
             292               3    -45.2542E-03
             293               1    -41.5042E-03
             293               2    -40.0644E-03
             293               3    -39.9343E-03
             294               1    -40.3870E-03
             294               2    -41.8321E-03
             294               3    -41.9527E-03
             295               1    -38.2545E-03
             295               2    -36.8298E-03
             295               3    -36.7049E-03
             296               1    -37.1533E-03
             296               2    -38.5791E-03
             296               3    -38.6964E-03
             297               1    -35.0387E-03
             297               2    -33.6281E-03
             297               3    -33.5125E-03
             298               1    -33.9591E-03
             298               2    -35.3683E-03
             298               3    -35.4781E-03
             299               1    -31.8551E-03
             299               2    -30.4583E-03
             299               3    -30.3543E-03
             300               1    -30.8000E-03
             300               2    -32.1942E-03
             300               3    -32.2942E-03
             301               1    -28.7037E-03
             301               2    -27.3210E-03
             301               3    -27.2288E-03
             302               1    -27.6738E-03
             302               2    -29.0538E-03
             302               3    -29.1432E-03
             303               1    -25.5852E-03
             303               2    -24.2169E-03
             303               3    -24.1357E-03
             304               1    -24.5799E-03
             304               2    -25.9458E-03
             304               3    -26.0251E-03
             305               1    -22.5001E-03
             305               2    -21.1465E-03
             305               3    -21.0752E-03
             306               1    -21.5179E-03
             306               2    -22.8698E-03
             306               3    -22.9401E-03
             307               1    -19.4490E-03
             307               2    -18.1104E-03
             307               3    -18.0475E-03
             308               1    -18.4882E-03
             308               2    -19.8258E-03
             308               3    -19.8885E-03
             309               1    -16.4324E-03
             309               2    -15.1087E-03
             309               3    -15.0528E-03
             310               1    -15.4909E-03
             310               2    -16.8143E-03
             310               3    -16.8705E-03
             311               1    -13.4501E-03
             311               2    -12.1414E-03
             311               3    -12.0912E-03
             312               1    -12.5262E-03
             312               2    -13.8353E-03
             312               3    -13.8863E-03
             313               1    -10.5020E-03
             313               2    -9.20797E-03
             313               3    -9.16225E-03
             314               1    -9.59396E-03
             314               2    -10.8889E-03
             314               3    -10.9357E-03
             315               1    -7.58722E-03
             315               2    -6.30726E-03
             315               3    -6.26501E-03
             316               1    -6.69326E-03
             316               2    -7.97452E-03
             316               3    -8.01812E-03
             317               1    -4.70434E-03
             317               2    -3.43749E-03
             317               3    -3.39761E-03
             318               1    -3.82252E-03
             318               2    -5.09096E-03
             318               3    -5.13213E-03
             319               1    -1.85122E-03
             319               2    -595.927E-06
             319               3    -556.560E-06
             320               1    -979.167E-06
             320               2    -2.23602E-03
             320               3    -2.27545E-03
             321               1    -62.3654E-03
             321               2    -60.7103E-03
             321               3    -60.6532E-03
             322               1    -61.2110E-03
             322               2    -62.8705E-03
             322               3    -62.9272E-03
             323               1    -58.6488E-03
             323               2    -57.0257E-03
             323               3    -56.9651E-03
             324               1    -57.5074E-03
             324               2    -59.1415E-03
             324               3    -59.2037E-03
             325               1    -55.0100E-03
             325               2    -53.4289E-03
             325               3    -53.3588E-03
             326               1    -53.8813E-03
             326               2    -55.4780E-03
             326               3    -55.5489E-03
             327               1    -51.4657E-03
             327               2    -49.9285E-03
             327               3    -49.8456E-03
             328               1    -50.3478E-03
             328               2    -51.9017E-03
             328               3    -51.9831E-03
             329               1    -48.0155E-03
             329               2    -46.5177E-03
             329               3    -46.4233E-03
             330               1    -46.9080E-03
             330               2    -48.4203E-03
             330               3    -48.5106E-03
             331               1    -44.6479E-03
             331               2    -43.1824E-03
             331               3    -43.0810E-03
             332               1    -43.5525E-03
             332               2    -45.0283E-03
             332               3    -45.1239E-03
             333               1    -41.3476E-03
             333               2    -39.9078E-03
             333               3    -39.8050E-03
             334               1    -40.2677E-03
             334               2    -41.7135E-03
             334               3    -41.8096E-03
             335               1    -38.1014E-03
             335               2    -36.6821E-03
             335               3    -36.5827E-03
             336               1    -37.0400E-03
             336               2    -38.4618E-03
             336               3    -38.5544E-03
             337               1    -34.8992E-03
             337               2    -33.4970E-03
             337               3    -33.4043E-03
             338               1    -33.8584E-03
             338               2    -35.2609E-03
             338               3    -35.3472E-03
             339               1    -31.7348E-03
             339               2    -30.3476E-03
             339               3    -30.2632E-03
             340               1    -30.7153E-03
             340               2    -32.1015E-03
             340               3    -32.1802E-03
             341               1    -28.6043E-03
             341               2    -27.2311E-03
             341               3    -27.1554E-03
             342               1    -27.6057E-03
             342               2    -28.9776E-03
             342               3    -29.0485E-03
             343               1    -25.5060E-03
             343               2    -24.1464E-03
             343               3    -24.0787E-03
             344               1    -24.5271E-03
             344               2    -25.8857E-03
             344               3    -25.9494E-03
             345               1    -22.4391E-03
             345               2    -21.0930E-03
             345               3    -21.0325E-03
             346               1    -21.4785E-03
             346               2    -22.8241E-03
             346               3    -22.8817E-03
             347               1    -19.4035E-03
             347               2    -18.0711E-03
             347               3    -18.0166E-03
             348               1    -18.4598E-03
             348               2    -19.7924E-03
             348               3    -19.8448E-03
             349               1    -16.3997E-03
             349               2    -15.0810E-03
             349               3    -15.0314E-03
             350               1    -15.4714E-03
             350               2    -16.7907E-03
             350               3    -16.8391E-03
             351               1    -13.4277E-03
             351               2    -12.1230E-03
             351               3    -12.0771E-03
             352               1    -12.5135E-03
             352               2    -13.8194E-03
             352               3    -13.8648E-03
             353               1    -10.4877E-03
             353               2    -9.19673E-03
             353               3    -9.15383E-03
             354               1    -9.58632E-03
             354               2    -10.8789E-03
             354               3    -10.9219E-03
             355               1    -7.57918E-03
             355               2    -6.30148E-03
             355               3    -6.26075E-03
             356               1    -6.68941E-03
             356               2    -7.96887E-03
             356               3    -8.01021E-03
             357               1    -4.70088E-03
             357               2    -3.43550E-03
             357               3    -3.39614E-03
             358               1    -3.82133E-03
             358               2    -5.08851E-03
             358               3    -5.12859E-03
             359               1    -1.85053E-03
             359               2    -595.720E-06
             359               3    -556.325E-06
             360               1    -979.369E-06
             360               2    -2.23561E-03
             360               3    -2.27468E-03
             361               1    -62.3642E-03
             361               2    -60.7070E-03
             361               3    -60.6498E-03
             362               1    -61.2084E-03
             362               2    -62.8705E-03
             362               3    -62.9270E-03
             363               1    -58.6393E-03
             363               2    -57.0089E-03
             363               3    -56.9485E-03
             364               1    -57.4925E-03
             364               2    -59.1336E-03
             364               3    -59.1966E-03
             365               1    -54.9814E-03
             365               2    -53.3891E-03
             365               3    -53.3222E-03
             366               1    -53.8481E-03
             366               2    -55.4541E-03
             366               3    -55.5245E-03
             367               1    -51.4114E-03
             367               2    -49.8624E-03
             367               3    -49.7885E-03
             368               1    -50.2961E-03
             368               2    -51.8588E-03
             368               3    -51.9353E-03
             369               1    -47.9366E-03
             369               2    -46.4299E-03
             369               3    -46.3508E-03
             370               1    -46.8427E-03
             370               2    -48.3609E-03
             370               3    -48.4403E-03
             371               1    -44.5520E-03
             371               2    -43.0823E-03
             371               3    -43.0014E-03
             372               1    -43.4815E-03
             372               2    -44.9593E-03
             372               3    -45.0378E-03
             373               1    -41.2453E-03
             373               2    -39.8059E-03
             373               3    -39.7266E-03
             374               1    -40.1985E-03
             374               2    -41.6428E-03
             374               3    -41.7172E-03
             375               1    -38.0021E-03
             375               2    -36.5867E-03
             375               3    -36.5117E-03
             376               1    -36.9783E-03
             376               2    -38.3961E-03
             376               3    -38.4646E-03
             377               1    -34.8099E-03
             377               2    -33.4137E-03
             377               3    -33.3444E-03
             378               1    -33.8074E-03
             378               2    -35.2045E-03
             378               3    -35.2664E-03
             379               1    -31.6591E-03
             379               2    -30.2786E-03
             379               3    -30.2156E-03
             380               1    -30.6758E-03
             380               2    -32.0564E-03
             380               3    -32.1120E-03
             381               1    -28.5432E-03
             381               2    -27.1766E-03
             381               3    -27.1196E-03
             382               1    -27.5770E-03
             382               2    -28.9437E-03
             382               3    -28.9940E-03
             383               1    -25.4588E-03
             383               2    -24.1050E-03
             383               3    -24.0531E-03
             384               1    -24.5076E-03
             384               2    -25.8618E-03
             384               3    -25.9078E-03
             385               1    -22.4040E-03
             385               2    -21.0627E-03
             385               3    -21.0151E-03
             386               1    -21.4663E-03
             386               2    -22.8084E-03
             386               3    -22.8512E-03
             387               1    -19.3785E-03
             387               2    -18.0498E-03
             387               3    -18.0055E-03
             388               1    -18.4528E-03
             388               2    -19.7828E-03
             388               3    -19.8235E-03
             389               1    -16.3824E-03
             389               2    -15.0667E-03
             389               3    -15.0247E-03
             390               1    -15.4678E-03
             390               2    -16.7854E-03
             390               3    -16.8248E-03
             391               1    -13.4164E-03
             391               2    -12.1138E-03
             391               3    -12.0734E-03
             392               1    -12.5120E-03
             392               2    -13.8168E-03
             392               3    -13.8556E-03
             393               1    -10.4807E-03
             393               2    -9.19126E-03
             393               3    -9.15185E-03
             394               1    -9.58587E-03
             394               2    -10.8778E-03
             394               3    -10.9164E-03
             395               1    -7.57533E-03
             395               2    -6.29866E-03
             395               3    -6.25983E-03
             396               1    -6.68943E-03
             396               2    -7.96853E-03
             396               3    -8.00725E-03
             397               1    -4.69918E-03
             397               2    -3.43444E-03
             397               3    -3.39580E-03
             398               1    -3.82157E-03
             398               2    -5.08848E-03
             398               3    -5.12731E-03
             399               1    -1.85012E-03
             399               2    -595.496E-06
             399               3    -556.203E-06
             400               1    -979.724E-06
             400               2    -2.23576E-03
             400               3    -2.27443E-03
             401               1    -62.3629E-03
             401               2    -60.7028E-03
             401               3    -60.6451E-03
             402               1    -61.2047E-03
             402               2    -62.8704E-03
             402               3    -62.9271E-03
             403               1    -58.6291E-03
             403               2    -56.9923E-03
             403               3    -56.9307E-03
             404               1    -57.4754E-03
             404               2    -59.1238E-03
             404               3    -59.1889E-03
             405               1    -54.9558E-03
             405               2    -53.3562E-03
             405               3    -53.2900E-03
             406               1    -53.8168E-03
             406               2    -55.4295E-03
             406               3    -55.5017E-03
             407               1    -51.3700E-03
             407               2    -49.8152E-03
             407               3    -49.7469E-03
             408               1    -50.2568E-03
             408               2    -51.8229E-03
             408               3    -51.8970E-03
             409               1    -47.8838E-03
             409               2    -46.3743E-03
             409               3    -46.3074E-03
             410               1    -46.8041E-03
             410               2    -48.3216E-03
             410               3    -48.3917E-03
             411               1    -44.4947E-03
             411               2    -43.0254E-03
             411               3    -42.9629E-03
             412               1    -43.4504E-03
             412               2    -44.9245E-03
             412               3    -44.9862E-03
             413               1    -41.1902E-03
             413               2    -39.7537E-03
             413               3    -39.6972E-03
             414               1    -40.1785E-03
             414               2    -41.6175E-03
             414               3    -41.6694E-03
             415               1    -37.9542E-03
             415               2    -36.5432E-03
             415               3    -36.4931E-03
             416               1    -36.9701E-03
             416               2    -38.3824E-03
             416               3    -38.4250E-03
             417               1    -34.7717E-03
             417               2    -33.3803E-03
             417               3    -33.3360E-03
             418               1    -33.8095E-03
             418               2    -35.2018E-03
             418               3    -35.2371E-03
             419               1    -31.6312E-03
             419               2    -30.2552E-03
             419               3    -30.2156E-03
             420               1    -30.6858E-03
             420               2    -32.0627E-03
             420               3    -32.0930E-03
             421               1    -28.5248E-03
             421               2    -27.1619E-03
             421               3    -27.1256E-03
             422               1    -27.5921E-03
             422               2    -28.9564E-03
             422               3    -28.9838E-03
             423               1    -25.4481E-03
             423               2    -24.0971E-03
             423               3    -24.0630E-03
             424               1    -24.5254E-03
             424               2    -25.8783E-03
             424               3    -25.9046E-03
             425               1    -22.3991E-03
             425               2    -21.0597E-03
             425               3    -21.0266E-03
             426               1    -21.4844E-03
             426               2    -22.8263E-03
             426               3    -22.8528E-03
             427               1    -19.3774E-03
             427               2    -18.0499E-03
             427               3    -18.0170E-03
             428               1    -18.4697E-03
             428               2    -19.8002E-03
             428               3    -19.8279E-03
             429               1    -16.3835E-03
             429               2    -15.0682E-03
             429               3    -15.0348E-03
             430               1    -15.4822E-03
             430               2    -16.8008E-03
             430               3    -16.8303E-03
             431               1    -13.4183E-03
             431               2    -12.1156E-03
             431               3    -12.0813E-03
             432               1    -12.5231E-03
             432               2    -13.8293E-03
             432               3    -13.8610E-03
             433               1    -10.4826E-03
             433               2    -9.19272E-03
             433               3    -9.15728E-03
             434               1    -9.59353E-03
             434               2    -10.8869E-03
             434               3    -10.9208E-03
             435               1    -7.57651E-03
             435               2    -6.29941E-03
             435               3    -6.26278E-03
             436               1    -6.69382E-03
             436               2    -7.97420E-03
             436               3    -8.01010E-03
             437               1    -4.69964E-03
             437               2    -3.43455E-03
             437               3    -3.39680E-03
             438               1    -3.82341E-03
             438               2    -5.09121E-03
             438               3    -5.12871E-03
             439               1    -1.85005E-03
             439               2    -595.275E-06
             439               3    -556.224E-06
             440               1    -980.219E-06
             440               2    -2.23655E-03
             440               3    -2.27479E-03
             441               1    -62.3612E-03
             441               2    -60.6972E-03
             441               3    -60.6382E-03
             442               1    -61.1993E-03
             442               2    -62.8701E-03
             442               3    -62.9273E-03
             443               1    -58.6162E-03
             443               2    -56.9731E-03
             443               3    -56.9091E-03
             444               1    -57.4534E-03
             444               2    -59.1101E-03
             444               3    -59.1792E-03
             445               1    -54.9294E-03
             445               2    -53.3258E-03
             445               3    -53.2589E-03
             446               1    -53.7845E-03
             446               2    -55.4011E-03
             446               3    -55.4770E-03
             447               1    -51.3364E-03
             447               2    -49.7822E-03
             447               3    -49.7190E-03
             448               1    -50.2295E-03
             448               2    -51.7922E-03
             448               3    -51.8641E-03
             449               1    -47.8528E-03
             449               2    -46.3477E-03
             449               3    -46.2939E-03
             450               1    -46.7949E-03
             450               2    -48.3036E-03
             450               3    -48.3618E-03
             451               1    -44.4738E-03
             451               2    -43.0110E-03
             451               3    -42.9690E-03
             452               1    -43.4647E-03
             452               2    -44.9281E-03
             452               3    -44.9686E-03
             453               1    -41.1829E-03
             453               2    -39.7530E-03
             453               3    -39.7223E-03
             454               1    -40.2148E-03
             454               2    -41.6442E-03
             454               3    -41.6681E-03
             455               1    -37.9603E-03
             455               2    -36.5548E-03
             455               3    -36.5328E-03
             456               1    -37.0226E-03
             456               2    -38.4279E-03
             456               3    -38.4395E-03
             457               1    -34.7888E-03
             457               2    -33.4012E-03
             457               3    -33.3847E-03
             458               1    -33.8713E-03
             458               2    -35.2597E-03
             458               3    -35.2641E-03
             459               1    -31.6558E-03
             459               2    -30.2820E-03
             459               3    -30.2681E-03
             460               1    -30.7506E-03
             460               2    -32.1263E-03
             460               3    -32.1280E-03
             461               1    -28.5535E-03
             461               2    -27.1912E-03
             461               3    -27.1776E-03
             462               1    -27.6552E-03
             462               2    -29.0203E-03
             462               3    -29.0227E-03
             463               1    -25.4779E-03
             463               2    -24.1264E-03
             463               3    -24.1114E-03
             464               1    -24.5833E-03
             464               2    -25.9385E-03
             464               3    -25.9438E-03
             465               1    -22.4276E-03
             465               2    -21.0869E-03
             465               3    -21.0693E-03
             466               1    -21.5351E-03
             466               2    -22.8801E-03
             466               3    -22.8896E-03
             467               1    -19.4029E-03
             467               2    -18.0734E-03
             467               3    -18.0527E-03
             468               1    -18.5119E-03
             468               2    -19.8461E-03
             468               3    -19.8605E-03
             469               1    -16.4049E-03
             469               2    -15.0873E-03
             469               3    -15.0630E-03
             470               1    -15.5155E-03
             470               2    -16.8380E-03
             470               3    -16.8575E-03
             471               1    -13.4349E-03
             471               2    -12.1297E-03
             471               3    -12.1019E-03
             472               1    -12.5476E-03
             472               2    -13.8577E-03
             472               3    -13.8821E-03
             473               1    -10.4941E-03
             473               2    -9.20185E-03
             473               3    -9.17062E-03
             474               1    -9.60970E-03
             474               2    -10.9066E-03
             474               3    -10.9357E-03
             475               1    -7.58327E-03
             475               2    -6.30414E-03
             475               3    -6.26986E-03
             476               1    -6.70277E-03
             476               2    -7.98618E-03
             476               3    -8.01927E-03
             477               1    -4.70248E-03
             477               2    -3.43596E-03
             477               3    -3.39924E-03
             478               1    -3.82691E-03
             478               2    -5.09684E-03
             478               3    -5.13301E-03
             479               1    -1.85038E-03
             479               2    -595.078E-06
             479               3    -556.411E-06
             480               1    -980.830E-06
             480               2    -2.23800E-03
             480               3    -2.27581E-03
             481               1    -62.3587E-03
             481               2    -60.6891E-03
             481               3    -60.6278E-03
             482               1    -61.1909E-03
             482               2    -62.8695E-03
             482               3    -62.9277E-03
             483               1    -58.5986E-03
             483               2    -56.9489E-03
             483               3    -56.8808E-03
             484               1    -57.4231E-03
             484               2    -59.0899E-03
             484               3    -59.1656E-03
             485               1    -54.8996E-03
             485               2    -53.2966E-03
             485               3    -53.2290E-03
             486               1    -53.7512E-03
             486               2    -55.3667E-03
             486               3    -55.4478E-03
             487               1    -51.3113E-03
             487               2    -49.7659E-03
             487               3    -49.7111E-03
             488               1    -50.2218E-03
             488               2    -51.7708E-03
             488               3    -51.8368E-03
             489               1    -47.8484E-03
             489               2    -46.3567E-03
             489               3    -46.3223E-03
             490               1    -46.8297E-03
             490               2    -48.3186E-03
             490               3    -48.3562E-03
             491               1    -44.4975E-03
             491               2    -43.0479E-03
             491               3    -43.0343E-03
             492               1    -43.5422E-03
             492               2    -44.9869E-03
             492               3    -44.9947E-03
             493               1    -41.2330E-03
             493               2    -39.8133E-03
             493               3    -39.8158E-03
             494               1    -40.3240E-03
             494               2    -41.7401E-03
             494               3    -41.7251E-03
             495               1    -38.0298E-03
             495               2    -36.6302E-03
             495               3    -36.6425E-03
             496               1    -37.1492E-03
             496               2    -38.5477E-03
             496               3    -38.5195E-03
             497               1    -34.8690E-03
             497               2    -33.4834E-03
             497               3    -33.4993E-03
             498               1    -34.0024E-03
             498               2    -35.3894E-03
             498               3    -35.3568E-03
             499               1    -31.7389E-03
             499               2    -30.3641E-03
             499               3    -30.3790E-03
             500               1    -30.8765E-03
             500               2    -32.2549E-03
             500               3    -32.2243E-03
             501               1    -28.6336E-03
             501               2    -27.2684E-03
             501               3    -27.2791E-03
             502               1    -27.7697E-03
             502               2    -29.1401E-03
             502               3    -29.1156E-03
             503               1    -25.5511E-03
             503               2    -24.1953E-03
             503               3    -24.2002E-03
             504               1    -24.6831E-03
             504               2    -26.0449E-03
             504               3    -26.0285E-03
             505               1    -22.4914E-03
             505               2    -21.1457E-03
             505               3    -21.1440E-03
             506               1    -21.6188E-03
             506               2    -22.9709E-03
             506               3    -22.9635E-03
             507               1    -19.4562E-03
             507               2    -18.1215E-03
             507               3    -18.1129E-03
             508               1    -18.5794E-03
             508               2    -19.9207E-03
             508               3    -19.9223E-03
             509               1    -16.4472E-03
             509               2    -15.1244E-03
             509               3    -15.1091E-03
             510               1    -15.5674E-03
             510               2    -16.8968E-03
             510               3    -16.9068E-03
             511               1    -13.4664E-03
             511               2    -12.1564E-03
             511               3    -12.1348E-03
             512               1    -12.5850E-03
             512               2    -13.9014E-03
             512               3    -13.9192E-03
             513               1    -10.5155E-03
             513               2    -9.21888E-03
             513               3    -9.19174E-03
             514               1    -9.63409E-03
             514               2    -10.9367E-03
             514               3    -10.9614E-03
             515               1    -7.59578E-03
             515               2    -6.31298E-03
             515               3    -6.28103E-03
             516               1    -6.71614E-03
             516               2    -8.00428E-03
             516               3    -8.03480E-03
             517               1    -4.70781E-03
             517               2    -3.43876E-03
             517               3    -3.40310E-03
             518               1    -3.83200E-03
             518               2    -5.10529E-03
             518               3    -5.14026E-03
             519               1    -1.85113E-03
             519               2    -594.929E-06
             519               3    -556.774E-06
             520               1    -981.515E-06
             520               2    -2.24008E-03
             520               3    -2.27750E-03
             521               1    -62.3548E-03
             521               2    -60.6765E-03
             521               3    -60.6113E-03
             522               1    -61.1768E-03
             522               2    -62.8684E-03
             522               3    -62.9285E-03
             523               1    -58.5728E-03
             523               2    -56.9171E-03
             523               3    -56.8430E-03
             524               1    -57.3802E-03
             524               2    -59.0582E-03
             524               3    -59.1454E-03
             525               1    -54.8663E-03
             525               2    -53.2724E-03
             525               3    -53.2069E-03
             526               1    -53.7240E-03
             526               2    -55.3270E-03
             526               3    -55.4127E-03
             527               1    -51.3033E-03
             527               2    -49.7797E-03
             527               3    -49.7433E-03
             528               1    -50.2575E-03
             528               2    -51.7753E-03
             528               3    -51.8231E-03
             529               1    -47.8883E-03
             529               2    -46.4214E-03
             529               3    -46.4211E-03
             530               1    -46.9424E-03
             530               2    -48.3970E-03
             530               3    -48.3934E-03
             531               1    -44.5877E-03
             531               2    -43.1581E-03
             531               3    -43.1880E-03
             532               1    -43.7167E-03
             532               2    -45.1356E-03
             532               3    -45.0891E-03
             533               1    -41.3615E-03
             533               2    -39.9536E-03
             533               3    -40.0021E-03
             534               1    -40.5338E-03
             534               2    -41.9361E-03
             534               3    -41.8645E-03
             535               1    -38.1795E-03
             535               2    -36.7839E-03
             535               3    -36.8394E-03
             536               1    -37.3691E-03
             536               2    -38.7645E-03
             536               3    -38.6845E-03
             537               1    -35.0242E-03
             537               2    -33.6367E-03
             537               3    -33.6904E-03
             538               1    -34.2140E-03
             538               2    -35.6056E-03
             538               3    -35.5292E-03
             539               1    -31.8880E-03
             539               2    -30.5073E-03
             539               3    -30.5536E-03
             540               1    -31.0688E-03
             540               2    -32.4563E-03
             540               3    -32.3904E-03
             541               1    -28.7692E-03
             541               2    -27.3959E-03
             541               3    -27.4319E-03
             542               1    -27.9371E-03
             542               2    -29.3188E-03
             542               3    -29.2668E-03
             543               1    -25.6692E-03
             543               2    -24.3045E-03
             543               3    -24.3291E-03
             544               1    -24.8238E-03
             544               2    -26.1975E-03
             544               3    -26.1603E-03
             545               1    -22.5907E-03
             545               2    -21.2359E-03
             545               3    -21.2492E-03
             546               1    -21.7334E-03
             546               2    -23.0972E-03
             546               3    -23.0743E-03
             547               1    -19.5366E-03
             547               2    -18.1932E-03
             547               3    -18.1957E-03
             548               1    -18.6696E-03
             548               2    -20.0218E-03
             548               3    -20.0122E-03
             549               1    -16.5096E-03
             549               2    -15.1787E-03
             549               3    -15.1715E-03
             550               1    -15.6356E-03
             550               2    -16.9748E-03
             550               3    -16.9769E-03
             551               1    -13.5122E-03
             551               2    -12.1948E-03
             551               3    -12.1789E-03
             552               1    -12.6335E-03
             552               2    -13.9587E-03
             552               3    -13.9711E-03
             553               1    -10.5463E-03
             553               2    -9.24334E-03
             553               3    -9.21978E-03
             554               1    -9.66552E-03
             554               2    -10.9757E-03
             554               3    -10.9969E-03
             555               1    -7.61369E-03
             555               2    -6.32570E-03
             555               3    -6.29584E-03
             556               1    -6.73329E-03
             556               2    -8.02764E-03
             556               3    -8.05617E-03
             557               1    -4.71549E-03
             557               2    -3.44288E-03
             557               3    -3.40826E-03
             558               1    -3.83845E-03
             558               2    -5.11616E-03
             558               3    -5.15023E-03
             559               1    -1.85231E-03
             559               2    -594.851E-06
             559               3    -557.310E-06
             560               1    -982.221E-06
             560               2    -2.24268E-03
             560               3    -2.27983E-03
             561               1    -62.3480E-03
             561               2    -60.6556E-03
             561               3    -60.5833E-03
             562               1    -61.1512E-03
             562               2    -62.8657E-03
             562               3    -62.9296E-03
             563               1    -58.5338E-03
             563               2    -56.8759E-03
             563               3    -56.7941E-03
             564               1    -57.3200E-03
             564               2    -59.0060E-03
             564               3    -59.1133E-03
             565               1    -54.8352E-03
             565               2    -53.2687E-03
             565               3    -53.2168E-03
             566               1    -53.7301E-03
             566               2    -55.2936E-03
             566               3    -55.3743E-03
             567               1    -51.3387E-03
             567               2    -49.8577E-03
             567               3    -49.8645E-03
             568               1    -50.3950E-03
             568               2    -51.8522E-03
             568               3    -51.8483E-03
             569               1    -48.0125E-03
             569               2    -46.5836E-03
             569               3    -46.6466E-03
             570               1    -47.1992E-03
             570               2    -48.6038E-03
             570               3    -48.5172E-03
             571               1    -44.7856E-03
             571               2    -43.3797E-03
             571               3    -43.4782E-03
             572               1    -44.0435E-03
             572               2    -45.4351E-03
             572               3    -45.2991E-03
             573               1    -41.6021E-03
             573               2    -40.2028E-03
             573               3    -40.3148E-03
             574               1    -40.8816E-03
             574               2    -42.2773E-03
             574               3    -42.1258E-03
             575               1    -38.4327E-03
             575               2    -37.0344E-03
             575               3    -37.1434E-03
             576               1    -37.7033E-03
             576               2    -39.1063E-03
             576               3    -38.9619E-03
             577               1    -35.2681E-03
             577               2    -33.8707E-03
             577               3    -33.9669E-03
             578               1    -34.5153E-03
             578               2    -35.9223E-03
             578               3    -35.7971E-03
             579               1    -32.1094E-03
             579               2    -30.7153E-03
             579               3    -30.7941E-03
             580               1    -31.3288E-03
             580               2    -32.7349E-03
             580               3    -32.6335E-03
             581               1    -28.9617E-03
             581               2    -27.5738E-03
             581               3    -27.6339E-03
             582               1    -28.1543E-03
             582               2    -29.5551E-03
             582               3    -29.4779E-03
             583               1    -25.8310E-03
             583               2    -24.4519E-03
             583               3    -24.4940E-03
             584               1    -25.0004E-03
             584               2    -26.3921E-03
             584               3    -26.3376E-03
             585               1    -22.7227E-03
             585               2    -21.3545E-03
             585               3    -21.3802E-03
             586               1    -21.8734E-03
             586               2    -23.2534E-03
             586               3    -23.2188E-03
             587               1    -19.6409E-03
             587               2    -18.2854E-03
             587               3    -18.2967E-03
             588               1    -18.7775E-03
             588               2    -20.1439E-03
             588               3    -20.1265E-03
             589               1    -16.5891E-03
             589               2    -15.2476E-03
             589               3    -15.2463E-03
             590               1    -15.7156E-03
             590               2    -17.0672E-03
             590               3    -17.0643E-03
             591               1    -13.5698E-03
             591               2    -12.2431E-03
             591               3    -12.2311E-03
             592               1    -12.6899E-03
             592               2    -14.0256E-03
             592               3    -14.0349E-03
             593               1    -10.5848E-03
             593               2    -9.27389E-03
             593               3    -9.25288E-03
             594               1    -9.70175E-03
             594               2    -11.0209E-03
             594               3    -11.0402E-03
             595               1    -7.63603E-03
             595               2    -6.34165E-03
             595               3    -6.31332E-03
             596               1    -6.75299E-03
             596               2    -8.05460E-03
             596               3    -8.08211E-03
             597               1    -4.72514E-03
             597               2    -3.44814E-03
             597               3    -3.41440E-03
             598               1    -3.84579E-03
             598               2    -5.12871E-03
             598               3    -5.16233E-03
             599               1    -1.85388E-03
             599               2    -594.864E-06
             599               3    -557.992E-06
             600               1    -982.875E-06
             600               2    -2.24564E-03
             600               3    -2.28265E-03
             601               1    -62.3344E-03
             601               2    -60.6184E-03
             601               3    -60.5316E-03
             602               1    -61.0981E-03
             602               2    -62.8582E-03
             602               3    -62.9310E-03
             603               1    -58.4739E-03
             603               2    -56.8318E-03
             603               3    -56.7454E-03
             604               1    -57.2495E-03
             604               2    -58.9181E-03
             604               3    -59.0597E-03
             605               1    -54.8342E-03
             605               2    -53.3350E-03
             605               3    -53.3338E-03
             606               1    -53.8615E-03
             606               2    -55.3221E-03
             606               3    -55.3526E-03
             607               1    -51.4856E-03
             607               2    -50.0773E-03
             607               3    -50.1839E-03
             608               1    -50.7674E-03
             608               2    -52.1237E-03
             608               3    -51.9830E-03
             609               1    -48.3015E-03
             609               2    -46.9196E-03
             609               3    -47.0973E-03
             610               1    -47.7156E-03
             610               2    -49.0656E-03
             610               3    -48.8193E-03
             611               1    -45.1592E-03
             611               2    -43.7702E-03
             611               3    -43.9727E-03
             612               1    -44.5981E-03
             612               2    -45.9787E-03
             612               3    -45.7044E-03
             613               1    -42.0007E-03
             613               2    -40.5965E-03
             613               3    -40.7913E-03
             614               1    -41.4063E-03
             614               2    -42.8180E-03
             614               3    -42.5629E-03
             615               1    -38.8150E-03
             615               2    -37.3993E-03
             615               3    -37.5696E-03
             616               1    -38.1660E-03
             616               2    -39.5974E-03
             616               3    -39.3814E-03
             617               1    -35.6114E-03
             617               2    -34.1913E-03
             617               3    -34.3308E-03
             618               1    -34.9060E-03
             618               2    -36.3450E-03
             618               3    -36.1726E-03
             619               1    -32.4045E-03
             619               2    -30.9865E-03
             619               3    -31.0950E-03
             620               1    -31.6491E-03
             620               2    -33.0863E-03
             620               3    -32.9549E-03
             621               1    -29.2074E-03
             621               2    -27.7968E-03
             621               3    -27.8767E-03
             622               1    -28.4111E-03
             622               2    -29.8398E-03
             622               3    -29.7444E-03
             623               1    -26.0303E-03
             623               2    -24.6309E-03
             623               3    -24.6857E-03
             624               1    -25.2022E-03
             624               2    -26.6181E-03
             624               3    -26.5530E-03
             625               1    -22.8805E-03
             625               2    -21.4947E-03
             625               3    -21.5283E-03
             626               1    -22.0286E-03
             626               2    -23.4291E-03
             626               3    -23.3890E-03
             627               1    -19.7627E-03
             627               2    -18.3922E-03
             627               3    -18.4081E-03
             628               1    -18.8941E-03
             628               2    -20.2775E-03
             628               3    -20.2577E-03
             629               1    -16.6802E-03
             629               2    -15.3259E-03
             629               3    -15.3273E-03
             630               1    -15.8005E-03
             630               2    -17.1660E-03
             630               3    -17.1625E-03
             631               1    -13.6348E-03
             631               2    -12.2974E-03
             631               3    -12.2869E-03
             632               1    -12.7487E-03
             632               2    -14.0959E-03
             632               3    -14.1054E-03
             633               1    -10.6280E-03
             633               2    -9.30812E-03
             633               3    -9.28801E-03
             634               1    -9.73921E-03
             634               2    -11.0678E-03
             634               3    -11.0876E-03
             635               1    -7.66102E-03
             635               2    -6.35957E-03
             635               3    -6.33183E-03
             636               1    -6.77324E-03
             636               2    -8.08249E-03
             636               3    -8.11041E-03
             637               1    -4.73599E-03
             637               2    -3.45415E-03
             637               3    -3.42093E-03
             638               1    -3.85322E-03
             638               2    -5.14163E-03
             638               3    -5.17554E-03
             639               1    -1.85571E-03
             639               2    -594.986E-06
             639               3    -558.765E-06
             640               1    -983.384E-06
             640               2    -2.24864E-03
             640               3    -2.28574E-03
             641               1    -62.2992E-03
             641               2    -60.5451E-03
             641               3    -60.4245E-03
             642               1    -60.9610E-03
             642               2    -62.8222E-03
             642               3    -62.9317E-03
             643               1    -58.3933E-03
             643               2    -56.8335E-03
             643               3    -56.7809E-03
             644               1    -57.2666E-03
             644               2    -58.7962E-03
             644               3    -58.9673E-03
             645               1    -54.9686E-03
             645               2    -53.6147E-03
             645               3    -53.7806E-03
             646               1    -54.4076E-03
             646               2    -55.6427E-03
             646               3    -55.4405E-03
             647               1    -51.9087E-03
             647               2    -50.5994E-03
             647               3    -50.9237E-03
             648               1    -51.6466E-03
             648               2    -52.8838E-03
             648               3    -52.4136E-03
             649               1    -48.9003E-03
             649               2    -47.5498E-03
             649               3    -47.9195E-03
             650               1    -48.6560E-03
             650               2    -49.9932E-03
             650               3    -49.4744E-03
             651               1    -45.8021E-03
             651               2    -44.3991E-03
             651               3    -44.7427E-03
             652               1    -45.4524E-03
             652               2    -46.8748E-03
             652               3    -46.4184E-03
             653               1    -42.6045E-03
             653               2    -41.1651E-03
             653               3    -41.4541E-03
             654               1    -42.1255E-03
             654               2    -43.5967E-03
             654               3    -43.2317E-03
             655               1    -39.3424E-03
             655               2    -37.8853E-03
             655               3    -38.1149E-03
             656               1    -38.7483E-03
             656               2    -40.2391E-03
             656               3    -39.9609E-03
             657               1    -36.0528E-03
             657               2    -34.5925E-03
             657               3    -34.7676E-03
             658               1    -35.3670E-03
             658               2    -36.8586E-03
             658               3    -36.6533E-03
             659               1    -32.7636E-03
             659               2    -31.3097E-03
             659               3    -31.4385E-03
             660               1    -32.0084E-03
             660               2    -33.4898E-03
             660               3    -33.3428E-03
             661               1    -29.4934E-03
             661               2    -28.0521E-03
             661               3    -28.1425E-03
             662               1    -28.6872E-03
             662               2    -30.1522E-03
             662               3    -30.0512E-03
             663               1    -26.2539E-03
             663               2    -24.8287E-03
             663               3    -24.8881E-03
             664               1    -25.4111E-03
             664               2    -26.8564E-03
             664               3    -26.7915E-03
             665               1    -23.0520E-03
             665               2    -21.6450E-03
             665               3    -21.6794E-03
             666               1    -22.1838E-03
             666               2    -23.6079E-03
             666               3    -23.5711E-03
             667               1    -19.8914E-03
             667               2    -18.5036E-03
             667               3    -18.5184E-03
             668               1    -19.0068E-03
             668               2    -20.4089E-03
             668               3    -20.3939E-03
             669               1    -16.7741E-03
             669               2    -15.4059E-03
             669               3    -15.4053E-03
             670               1    -15.8798E-03
             670               2    -17.2600E-03
             670               3    -17.2618E-03
             671               1    -13.7006E-03
             671               2    -12.3521E-03
             671               3    -12.3396E-03
             672               1    -12.8022E-03
             672               2    -14.1609E-03
             672               3    -14.1752E-03
             673               1    -10.6711E-03
             673               2    -9.34232E-03
             673               3    -9.32068E-03
             674               1    -9.77277E-03
             674               2    -11.1103E-03
             674               3    -11.1338E-03
             675               1    -7.68590E-03
             675               2    -6.37743E-03
             675               3    -6.34890E-03
             676               1    -6.79113E-03
             676               2    -8.10744E-03
             676               3    -8.13773E-03
             677               1    -4.74677E-03
             677               2    -3.46019E-03
             677               3    -3.42686E-03
             678               1    -3.85950E-03
             678               2    -5.15297E-03
             678               3    -5.18821E-03
             679               1    -1.85758E-03
             679               2    -595.220E-06
             679               3    -559.508E-06
             680               1    -983.583E-06
             680               2    -2.25107E-03
             680               3    -2.28866E-03
             681               1    -62.1788E-03
             681               2    -60.4077E-03
             681               3    -60.2146E-03
             682               1    -60.5890E-03
             682               2    -62.5907E-03
             682               3    -62.9266E-03
             683               1    -58.4000E-03
             683               2    -57.1428E-03
             683               3    -57.3701E-03
             684               1    -58.0475E-03
             684               2    -58.9910E-03
             684               3    -58.8516E-03
             685               1    -55.6089E-03
             685               2    -54.4958E-03
             685               3    -55.1545E-03
             686               1    -56.1620E-03
             686               2    -57.0913E-03
             686               3    -56.0371E-03
             687               1    -52.9635E-03
             687               2    -51.7101E-03
             687               3    -52.4482E-03
             688               1    -53.4496E-03
             688               2    -54.7055E-03
             688               3    -53.5897E-03
             689               1    -50.0199E-03
             689               2    -48.6191E-03
             689               3    -49.2541E-03
             690               1    -50.1506E-03
             690               2    -51.6219E-03
             690               3    -50.7524E-03
             691               1    -46.8020E-03
             691               2    -45.3153E-03
             691               3    -45.8089E-03
             692               1    -46.6055E-03
             692               2    -48.1702E-03
             692               3    -47.5481E-03
             693               1    -43.4311E-03
             693               2    -41.9083E-03
             693               3    -42.2758E-03
             694               1    -42.9945E-03
             694               2    -44.5847E-03
             694               3    -44.1497E-03
             695               1    -40.0009E-03
             695               2    -38.4718E-03
             695               3    -38.7389E-03
             696               1    -39.3984E-03
             696               2    -40.9820E-03
             696               3    -40.6803E-03
             697               1    -36.5671E-03
             697               2    -35.0478E-03
             697               3    -35.2379E-03
             698               1    -35.8517E-03
             698               2    -37.4143E-03
             698               3    -37.2074E-03
             699               1    -33.1600E-03
             699               2    -31.6589E-03
             699               3    -31.7903E-03
             700               1    -32.3680E-03
             700               2    -33.9035E-03
             700               3    -33.7652E-03
             701               1    -29.7953E-03
             701               2    -28.3165E-03
             701               3    -28.4030E-03
             702               1    -28.9514E-03
             702               2    -30.4580E-03
             702               3    -30.3700E-03
             703               1    -26.4807E-03
             703               2    -25.0259E-03
             703               3    -25.0781E-03
             704               1    -25.6023E-03
             704               2    -27.0796E-03
             704               3    -27.0292E-03
             705               1    -23.2194E-03
             705               2    -21.7892E-03
             705               3    -21.8151E-03
             706               1    -22.3190E-03
             706               2    -23.7676E-03
             706               3    -23.7454E-03
             707               1    -20.0123E-03
             707               2    -18.6065E-03
             707               3    -18.6124E-03
             708               1    -19.0992E-03
             708               2    -20.5200E-03
             708               3    -20.5190E-03
             709               1    -16.8588E-03
             709               2    -15.4769E-03
             709               3    -15.4680E-03
             710               1    -15.9404E-03
             710               2    -17.3346E-03
             710               3    -17.3489E-03
             711               1    -13.7579E-03
             711               2    -12.3991E-03
             711               3    -12.3796E-03
             712               1    -12.8401E-03
             712               2    -14.2086E-03
             712               3    -14.2337E-03
             713               1    -10.7077E-03
             713               2    -9.37120E-03
             713               3    -9.34469E-03
             714               1    -9.79522E-03
             714               2    -11.1395E-03
             714               3    -11.1712E-03
             715               1    -7.70675E-03
             715               2    -6.39238E-03
             715               3    -6.36118E-03
             716               1    -6.80293E-03
             716               2    -8.12419E-03
             716               3    -8.15939E-03
             717               1    -4.75556E-03
             717               2    -3.46501E-03
             717               3    -3.43061E-03
             718               1    -3.86294E-03
             718               2    -5.16028E-03
             718               3    -5.19789E-03
             719               1    -1.85901E-03
             719               2    -595.555E-06
             719               3    -559.895E-06
             720               1    -983.051E-06
             720               2    -2.25158E-03
             720               3    -2.29051E-03
             721               1    -61.8744E-03
             721               2    -60.5855E-03
             721               3    -60.6817E-03
             722               1    -61.1371E-03
             722               2    -61.3845E-03
             722               3    -62.9153E-03
             723               1    -59.4424E-03
             723               2    -58.9295E-03
             723               3    -60.6865E-03
             724               1    -62.9878E-03
             724               2    -63.0096E-03
             724               3    -59.4340E-03
             725               1    -57.8562E-03
             725               2    -56.8127E-03
             725               3    -58.5995E-03
             726               1    -60.4407E-03
             726               2    -61.7499E-03
             726               3    -58.6626E-03
             727               1    -55.2084E-03
             727               2    -53.7389E-03
             727               3    -55.0268E-03
             728               1    -56.3254E-03
             728               2    -58.1046E-03
             728               3    -56.3004E-03
             729               1    -51.8159E-03
             729               2    -50.1813E-03
             729               3    -51.0415E-03
             730               1    -52.0401E-03
             730               2    -53.8923E-03
             730               3    -52.8506E-03
             731               1    -48.1423E-03
             731               2    -46.4712E-03
             731               3    -47.0426E-03
             732               1    -47.8749E-03
             732               2    -49.6894E-03
             732               3    -49.0577E-03
             733               1    -44.4140E-03
             733               2    -42.7563E-03
             733               3    -43.1388E-03
             734               1    -43.8689E-03
             734               2    -45.6232E-03
             734               3    -45.2247E-03
             735               1    -40.7207E-03
             735               2    -39.0939E-03
             735               3    -39.3505E-03
             736               1    -40.0117E-03
             736               2    -41.7060E-03
             736               3    -41.4505E-03
             737               1    -37.0949E-03
             737               2    -35.5042E-03
             737               3    -35.6742E-03
             738               1    -36.2855E-03
             738               2    -37.9253E-03
             738               3    -37.7630E-03
             739               1    -33.5465E-03
             739               2    -31.9924E-03
             739               3    -32.1010E-03
             740               1    -32.6743E-03
             740               2    -34.2653E-03
             740               3    -34.1669E-03
             741               1    -30.0763E-03
             741               2    -28.5576E-03
             741               3    -28.6215E-03
             742               1    -29.1648E-03
             742               2    -30.7121E-03
             742               3    -30.6590E-03
             743               1    -26.6820E-03
             743               2    -25.1969E-03
             743               3    -25.2278E-03
             744               1    -25.7465E-03
             744               2    -27.2543E-03
             744               3    -27.2341E-03
             745               1    -23.3600E-03
             745               2    -21.9068E-03
             745               3    -21.9132E-03
             746               1    -22.4113E-03
             746               2    -23.8828E-03
             746               3    -23.8871E-03
             747               1    -20.1069E-03
             747               2    -18.6839E-03
             747               3    -18.6721E-03
             748               1    -19.1528E-03
             748               2    -20.5907E-03
             748               3    -20.6130E-03
             749               1    -16.9193E-03
             749               2    -15.5251E-03
             749               3    -15.5004E-03
             750               1    -15.9663E-03
             750               2    -17.3725E-03
             750               3    -17.4077E-03
             751               1    -13.7941E-03
             751               2    -12.4272E-03
             751               3    -12.3944E-03
             752               1    -12.8482E-03
             752               2    -14.2242E-03
             752               3    -14.2676E-03
             753               1    -10.7283E-03
             753               2    -9.38720E-03
             753               3    -9.35076E-03
             754               1    -9.79524E-03
             754               2    -11.1425E-03
             754               3    -11.1892E-03
             755               1    -7.71833E-03
             755               2    -6.40122E-03
             755               3    -6.36494E-03
             756               1    -6.80378E-03
             756               2    -8.12428E-03
             756               3    -8.16889E-03
             757               1    -4.76063E-03
             757               2    -3.46710E-03
             757               3    -3.43149E-03
             758               1    -3.86599E-03
             758               2    -5.16385E-03
             758               3    -5.20198E-03
             759               1    -1.85901E-03
             759               2    -595.922E-06
             759               3    -559.140E-06
             760               1    -981.350E-06
             760               2    -2.24943E-03
             760               3    -2.28958E-03
             761               1    -65.0671E-03
             761               2    -66.8369E-03
             761               3    -76.4531E-03
             762               1    -98.4042E-03
             762               2    -110.544E-03
             762               3    -54.8191E-03
             763               1    -66.6770E-03
             763               2    -65.5641E-03
             763               3    -71.7142E-03
             764               1    -76.6591E-03
             764               2    -83.3792E-03
             764               3    -69.6134E-03
             765               1    -63.5498E-03
             765               2    -61.3207E-03
             765               3    -64.1402E-03
             766               1    -65.8770E-03
             766               2    -69.7172E-03
             766               3    -66.4668E-03
             767               1    -58.7597E-03
             767               2    -56.5405E-03
             767               3    -57.9385E-03
             768               1    -59.0537E-03
             768               2    -61.8455E-03
             768               3    -60.6265E-03
             769               1    -54.0112E-03
             769               2    -51.9544E-03
             769               3    -52.7304E-03
             770               1    -53.6220E-03
             770               2    -55.9458E-03
             770               3    -55.3147E-03
             771               1    -49.5541E-03
             771               2    -47.6365E-03
             771               3    -48.1004E-03
             772               1    -48.8684E-03
             772               2    -50.9342E-03
             772               3    -50.5664E-03
             773               1    -45.3574E-03
             773               2    -43.5465E-03
             773               3    -43.8341E-03
             774               1    -44.5216E-03
             774               2    -46.4241E-03
             774               3    -46.2029E-03
             775               1    -41.3680E-03
             775               2    -39.6406E-03
             775               3    -39.8193E-03
             776               1    -40.4501E-03
             776               2    -42.2388E-03
             776               3    -42.1083E-03
             777               1    -37.5452E-03
             777               2    -35.8854E-03
             777               3    -35.9922E-03
             778               1    -36.5808E-03
             778               2    -38.2841E-03
             778               3    -38.2138E-03
             779               1    -33.8600E-03
             779               2    -32.2566E-03
             779               3    -32.3138E-03
             780               1    -32.8693E-03
             780               2    -34.5051E-03
             780               3    -34.4767E-03
             781               1    -30.2916E-03
             781               2    -28.7367E-03
             781               3    -28.7583E-03
             782               1    -29.2871E-03
             782               2    -30.8669E-03
             782               3    -30.8688E-03
             783               1    -26.8249E-03
             783               2    -25.3128E-03
             783               3    -25.3083E-03
             784               1    -25.8147E-03
             784               2    -27.3466E-03
             784               3    -27.3711E-03
             785               1    -23.4489E-03
             785               2    -21.9754E-03
             785               3    -21.9514E-03
             786               1    -22.4386E-03
             786               2    -23.9283E-03
             786               3    -23.9697E-03
             787               1    -20.1554E-03
             787               2    -18.7175E-03
             787               3    -18.6790E-03
             788               1    -19.1493E-03
             788               2    -20.6006E-03
             788               3    -20.6551E-03
             789               1    -16.9384E-03
             789               2    -15.5339E-03
             789               3    -15.4853E-03
             790               1    -15.9406E-03
             790               2    -17.3561E-03
             790               3    -17.4202E-03
             791               1    -13.7937E-03
             791               2    -12.4212E-03
             791               3    -12.3668E-03
             792               1    -12.8087E-03
             792               2    -14.1897E-03
             792               3    -14.2603E-03
             793               1    -10.7185E-03
             793               2    -9.37698E-03
             793               3    -9.32185E-03
             794               1    -9.75271E-03
             794               2    -11.0994E-03
             794               3    -11.1724E-03
             795               1    -7.71033E-03
             795               2    -6.39850E-03
             795               3    -6.34997E-03
             796               1    -6.77474E-03
             796               2    -8.08569E-03
             796               3    -8.15427E-03
             797               1    -4.76515E-03
             797               2    -3.47730E-03
             797               3    -3.44624E-03
             798               1    -3.88257E-03
             798               2    -5.15345E-03
             798               3    -5.20119E-03
             799               1    -1.86712E-03
             799               2    -592.611E-06
             799               3    -580.370E-06
             800               1    -1.08043E-03
             800               2    -2.31645E-03
             800               3    -2.29006E-03


  Minimum                           -110.544E-03
      At Element                             762
          Int Pt                               2

  Maximum                           -512.556E-06
      At Element                              39
          Int Pt                               2

           Total                        -74.5666


********************************************************************************
Field Output Report, written Wed Mar 07 18:30:38 2018

Source 1
---------

   ODB: C:/Users/Wagner/Desktop/Projeto FEM/FEM-matlab/Benchmarks/Vaso de Pressao/Job-1.odb
   Step: Step-1
   Frame: Increment      1: Step Time =    1.000

Loc 1 : Nodal values from source 1

Output sorted by column "Node Label".

Field Output reported at nodes for part: PART-1-1

            Node            U.U1
           Label          @Loc 1
---------------------------------
               1     176.658E-06
               2     176.275E-06
               3     175.928E-06
               4     175.596E-06
               5     175.272E-06
               6     174.956E-06
               7     174.646E-06
               8     174.343E-06
               9     174.045E-06
              10     173.754E-06
              11     173.468E-06
              12     173.188E-06
              13     172.913E-06
              14     172.644E-06
              15     172.379E-06
              16     172.120E-06
              17     171.866E-06
              18     171.616E-06
              19     171.372E-06
              20     171.132E-06
              21     170.897E-06
              22     176.592E-06
              23     176.258E-06
              24     175.923E-06
              25     175.593E-06
              26     175.271E-06
              27     174.955E-06
              28     174.645E-06
              29     174.342E-06
              30     174.045E-06
              31     173.754E-06
              32     173.468E-06
              33     173.188E-06
              34     172.913E-06
              35     172.644E-06
              36     172.379E-06
              37     172.120E-06
              38     171.866E-06
              39     171.616E-06
              40     171.372E-06
              41     171.132E-06
              42     170.897E-06
              43     176.577E-06
              44     176.242E-06
              45     175.913E-06
              46     175.587E-06
              47     175.267E-06
              48     174.952E-06
              49     174.644E-06
              50     174.341E-06
              51     174.044E-06
              52     173.753E-06
              53     173.468E-06
              54     173.188E-06
              55     172.913E-06
              56     172.643E-06
              57     172.379E-06
              58     172.120E-06
              59     171.866E-06
              60     171.616E-06
              61     171.372E-06
              62     171.132E-06
              63     170.897E-06
              64     176.568E-06
              65     176.233E-06
              66     175.905E-06
              67     175.581E-06
              68     175.262E-06
              69     174.949E-06
              70     174.641E-06
              71     174.339E-06
              72     174.043E-06
              73     173.752E-06
              74     173.467E-06
              75     173.187E-06
              76     172.913E-06
              77     172.643E-06
              78     172.379E-06
              79     172.120E-06
              80     171.866E-06
              81     171.616E-06
              82     171.372E-06
              83     171.132E-06
              84     170.897E-06
              85     176.563E-06
              86     176.228E-06
              87     175.899E-06
              88     175.576E-06
              89     175.258E-06
              90     174.946E-06
              91     174.639E-06
              92     174.338E-06
              93     174.042E-06
              94     173.751E-06
              95     173.466E-06
              96     173.187E-06
              97     172.912E-06
              98     172.643E-06
              99     172.379E-06
             100     172.120E-06
             101     171.866E-06
             102     171.617E-06
             103     171.372E-06
             104     171.132E-06
             105     170.897E-06
             106     176.559E-06
             107     176.224E-06
             108     175.895E-06
             109     175.572E-06
             110     175.255E-06
             111     174.943E-06
             112     174.637E-06
             113     174.336E-06
             114     174.041E-06
             115     173.751E-06
             116     173.466E-06
             117     173.186E-06
             118     172.912E-06
             119     172.643E-06
             120     172.379E-06
             121     172.120E-06
             122     171.866E-06
             123     171.617E-06
             124     171.372E-06
             125     171.133E-06
             126     170.898E-06
             127     176.556E-06
             128     176.221E-06
             129     175.892E-06
             130     175.569E-06
             131     175.252E-06
             132     174.941E-06
             133     174.635E-06
             134     174.335E-06
             135     174.040E-06
             136     173.750E-06
             137     173.465E-06
             138     173.186E-06
             139     172.912E-06
             140     172.643E-06
             141     172.379E-06
             142     172.120E-06
             143     171.866E-06
             144     171.617E-06
             145     171.373E-06
             146     171.133E-06
             147     170.898E-06
             148     176.554E-06
             149     176.219E-06
             150     175.890E-06
             151     175.567E-06
             152     175.250E-06
             153     174.939E-06
             154     174.634E-06
             155     174.334E-06
             156     174.039E-06
             157     173.749E-06
             158     173.465E-06
             159     173.186E-06
             160     172.912E-06
             161     172.643E-06
             162     172.380E-06
             163     172.121E-06
             164     171.867E-06
             165     171.618E-06
             166     171.373E-06
             167     171.133E-06
             168     170.898E-06
             169     176.553E-06
             170     176.218E-06
             171     175.889E-06
             172     175.566E-06
             173     175.249E-06
             174     174.938E-06
             175     174.633E-06
             176     174.333E-06
             177     174.038E-06
             178     173.749E-06
             179     173.465E-06
             180     173.186E-06
             181     172.913E-06
             182     172.644E-06
             183     172.380E-06
             184     172.121E-06
             185     171.867E-06
             186     171.618E-06
             187     171.374E-06
             188     171.134E-06
             189     170.899E-06
             190     176.553E-06
             191     176.218E-06
             192     175.889E-06
             193     175.566E-06
             194     175.249E-06
             195     174.938E-06
             196     174.633E-06
             197     174.333E-06
             198     174.039E-06
             199     173.750E-06
             200     173.466E-06
             201     173.187E-06
             202     172.913E-06
             203     172.645E-06
             204     172.381E-06
             205     172.122E-06
             206     171.868E-06
             207     171.619E-06
             208     171.375E-06
             209     171.135E-06
             210     170.900E-06
             211     176.553E-06
             212     176.218E-06
             213     175.889E-06
             214     175.566E-06
             215     175.249E-06
             216     174.938E-06
             217     174.633E-06
             218     174.334E-06
             219     174.039E-06
             220     173.750E-06
             221     173.466E-06
             222     173.188E-06
             223     172.914E-06
             224     172.645E-06
             225     172.382E-06
             226     172.123E-06
             227     171.869E-06
             228     171.620E-06
             229     171.375E-06
             230     171.136E-06
             231     170.901E-06
             232     176.554E-06
             233     176.219E-06
             234     175.890E-06
             235     175.567E-06
             236     175.250E-06
             237     174.939E-06
             238     174.634E-06
             239     174.335E-06
             240     174.040E-06
             241     173.751E-06
             242     173.468E-06
             243     173.189E-06
             244     172.915E-06
             245     172.647E-06
             246     172.383E-06
             247     172.124E-06
             248     171.870E-06
             249     171.621E-06
             250     171.376E-06
             251     171.137E-06
             252     170.902E-06
             253     176.556E-06
             254     176.221E-06
             255     175.891E-06
             256     175.569E-06
             257     175.252E-06
             258     174.941E-06
             259     174.636E-06
             260     174.336E-06
             261     174.042E-06
             262     173.753E-06
             263     173.469E-06
             264     173.191E-06
             265     172.917E-06
             266     172.648E-06
             267     172.384E-06
             268     172.125E-06
             269     171.871E-06
             270     171.622E-06
             271     171.378E-06
             272     171.138E-06
             273     170.903E-06
             274     176.559E-06
             275     176.223E-06
             276     175.894E-06
             277     175.571E-06
             278     175.254E-06
             279     174.944E-06
             280     174.639E-06
             281     174.339E-06
             282     174.045E-06
             283     173.755E-06
             284     173.471E-06
             285     173.192E-06
             286     172.918E-06
             287     172.650E-06
             288     172.386E-06
             289     172.127E-06
             290     171.873E-06
             291     171.623E-06
             292     171.379E-06
             293     171.139E-06
             294     170.904E-06
             295     176.562E-06
             296     176.226E-06
             297     175.897E-06
             298     175.574E-06
             299     175.258E-06
             300     174.947E-06
             301     174.642E-06
             302     174.342E-06
             303     174.047E-06
             304     173.758E-06
             305     173.474E-06
             306     173.194E-06
             307     172.920E-06
             308     172.651E-06
             309     172.387E-06
             310     172.128E-06
             311     171.874E-06
             312     171.625E-06
             313     171.380E-06
             314     171.140E-06
             315     170.905E-06
             316     176.566E-06
             317     176.230E-06
             318     175.901E-06
             319     175.579E-06
             320     175.262E-06
             321     174.952E-06
             322     174.646E-06
             323     174.346E-06
             324     174.051E-06
             325     173.761E-06
             326     173.476E-06
             327     173.197E-06
             328     172.922E-06
             329     172.653E-06
             330     172.389E-06
             331     172.130E-06
             332     171.875E-06
             333     171.626E-06
             334     171.381E-06
             335     171.141E-06
             336     170.906E-06
             337     176.573E-06
             338     176.236E-06
             339     175.907E-06
             340     175.585E-06
             341     175.268E-06
             342     174.957E-06
             343     174.651E-06
             344     174.350E-06
             345     174.054E-06
             346     173.764E-06
             347     173.479E-06
             348     173.199E-06
             349     172.924E-06
             350     172.655E-06
             351     172.390E-06
             352     172.131E-06
             353     171.877E-06
             354     171.627E-06
             355     171.382E-06
             356     171.143E-06
             357     170.907E-06
             358     176.581E-06
             359     176.245E-06
             360     175.916E-06
             361     175.594E-06
             362     175.276E-06
             363     174.963E-06
             364     174.656E-06
             365     174.354E-06
             366     174.058E-06
             367     173.767E-06
             368     173.481E-06
             369     173.201E-06
             370     172.926E-06
             371     172.656E-06
             372     172.392E-06
             373     172.132E-06
             374     171.878E-06
             375     171.628E-06
             376     171.384E-06
             377     171.144E-06
             378     170.908E-06
             379     176.594E-06
             380     176.258E-06
             381     175.929E-06
             382     175.605E-06
             383     175.285E-06
             384     174.970E-06
             385     174.662E-06
             386     174.359E-06
             387     174.061E-06
             388     173.770E-06
             389     173.484E-06
             390     173.203E-06
             391     172.928E-06
             392     172.658E-06
             393     172.393E-06
             394     172.134E-06
             395     171.879E-06
             396     171.629E-06
             397     171.385E-06
             398     171.145E-06
             399     170.909E-06
             400     176.618E-06
             401     176.282E-06
             402     175.948E-06
             403     175.618E-06
             404     175.294E-06
             405     174.977E-06
             406     174.666E-06
             407     174.362E-06
             408     174.064E-06
             409     173.772E-06
             410     173.485E-06
             411     173.204E-06
             412     172.929E-06
             413     172.659E-06
             414     172.394E-06
             415     172.135E-06
             416     171.880E-06
             417     171.630E-06
             418     171.385E-06
             419     171.145E-06
             420     170.910E-06
             421     176.724E-06
             422     176.323E-06
             423     175.966E-06
             424     175.627E-06
             425     175.300E-06
             426     174.981E-06
             427     174.669E-06
             428     174.364E-06
             429     174.065E-06
             430     173.773E-06
             431     173.486E-06
             432     173.205E-06
             433     172.930E-06
             434     172.660E-06
             435     172.395E-06
             436     172.135E-06
             437     171.881E-06
             438     171.631E-06
             439     171.386E-06
             440     171.146E-06
             441     170.911E-06
             442     176.458E-06
             443     176.268E-06
             444     176.437E-06
             445     176.425E-06
             446     176.607E-06
             447     176.099E-06
             448     175.927E-06
             449     176.096E-06
             450     176.090E-06
             451     175.761E-06
             452     175.596E-06
             453     175.760E-06
             454     175.757E-06
             455     175.433E-06
             456     175.272E-06
             457     175.433E-06
             458     175.431E-06
             459     175.113E-06
             460     174.956E-06
             461     175.113E-06
             462     175.112E-06
             463     174.800E-06
             464     174.646E-06
             465     174.800E-06
             466     174.799E-06
             467     174.494E-06
             468     174.343E-06
             469     174.494E-06
             470     174.493E-06
             471     174.193E-06
             472     174.046E-06
             473     174.193E-06
             474     174.193E-06
             475     173.899E-06
             476     173.754E-06
             477     173.899E-06
             478     173.899E-06
             479     173.610E-06
             480     173.468E-06
             481     173.610E-06
             482     173.610E-06
             483     173.327E-06
             484     173.188E-06
             485     173.328E-06
             486     173.327E-06
             487     173.050E-06
             488     172.913E-06
             489     173.050E-06
             490     173.050E-06
             491     172.778E-06
             492     172.644E-06
             493     172.778E-06
             494     172.778E-06
             495     172.511E-06
             496     172.379E-06
             497     172.511E-06
             498     172.511E-06
             499     172.249E-06
             500     172.120E-06
             501     172.249E-06
             502     172.249E-06
             503     171.992E-06
             504     171.866E-06
             505     171.992E-06
             506     171.992E-06
             507     171.740E-06
             508     171.617E-06
             509     171.741E-06
             510     171.740E-06
             511     171.494E-06
             512     171.372E-06
             513     171.494E-06
             514     171.494E-06
             515     171.251E-06
             516     171.132E-06
             517     171.252E-06
             518     171.251E-06
             519     171.014E-06
             520     170.897E-06
             521     171.014E-06
             522     171.014E-06
             523     176.249E-06
             524     176.415E-06
             525     176.409E-06
             526     176.584E-06
             527     175.918E-06
             528     176.083E-06
             529     176.077E-06
             530     175.591E-06
             531     175.753E-06
             532     175.750E-06
             533     175.269E-06
             534     175.429E-06
             535     175.427E-06
             536     174.954E-06
             537     175.111E-06
             538     175.109E-06
             539     174.645E-06
             540     174.799E-06
             541     174.797E-06
             542     174.342E-06
             543     174.493E-06
             544     174.492E-06
             545     174.045E-06
             546     174.193E-06
             547     174.192E-06
             548     173.754E-06
             549     173.899E-06
             550     173.898E-06
             551     173.468E-06
             552     173.610E-06
             553     173.610E-06
             554     173.188E-06
             555     173.327E-06
             556     173.327E-06
             557     172.913E-06
             558     173.050E-06
             559     173.050E-06
             560     172.644E-06
             561     172.778E-06
             562     172.778E-06
             563     172.379E-06
             564     172.511E-06
             565     172.511E-06
             566     172.120E-06
             567     172.249E-06
             568     172.249E-06
             569     171.866E-06
             570     171.992E-06
             571     171.992E-06
             572     171.617E-06
             573     171.741E-06
             574     171.741E-06
             575     171.372E-06
             576     171.494E-06
             577     171.494E-06
             578     171.132E-06
             579     171.252E-06
             580     171.251E-06
             581     170.897E-06
             582     171.014E-06
             583     171.014E-06
             584     176.238E-06
             585     176.404E-06
             586     176.400E-06
             587     176.573E-06
             588     175.909E-06
             589     176.072E-06
             590     176.069E-06
             591     175.584E-06
             592     175.746E-06
             593     175.742E-06
             594     175.265E-06
             595     175.424E-06
             596     175.421E-06
             597     174.951E-06
             598     175.107E-06
             599     175.105E-06
             600     174.643E-06
             601     174.796E-06
             602     174.795E-06
             603     174.341E-06
             604     174.491E-06
             605     174.490E-06
             606     174.044E-06
             607     174.191E-06
             608     174.191E-06
             609     173.753E-06
             610     173.898E-06
             611     173.897E-06
             612     173.468E-06
             613     173.610E-06
             614     173.609E-06
             615     173.188E-06
             616     173.327E-06
             617     173.327E-06
             618     172.913E-06
             619     173.050E-06
             620     173.049E-06
             621     172.644E-06
             622     172.778E-06
             623     172.777E-06
             624     172.379E-06
             625     172.511E-06
             626     172.511E-06
             627     172.120E-06
             628     172.249E-06
             629     172.249E-06
             630     171.866E-06
             631     171.992E-06
             632     171.992E-06
             633     171.617E-06
             634     171.741E-06
             635     171.741E-06
             636     171.372E-06
             637     171.494E-06
             638     171.494E-06
             639     171.132E-06
             640     171.252E-06
             641     171.252E-06
             642     170.897E-06
             643     171.014E-06
             644     171.014E-06
             645     176.231E-06
             646     176.397E-06
             647     176.395E-06
             648     176.566E-06
             649     175.902E-06
             650     176.065E-06
             651     176.063E-06
             652     175.579E-06
             653     175.739E-06
             654     175.737E-06
             655     175.261E-06
             656     175.419E-06
             657     175.417E-06
             658     174.948E-06
             659     175.103E-06
             660     175.102E-06
             661     174.641E-06
             662     174.793E-06
             663     174.792E-06
             664     174.339E-06
             665     174.489E-06
             666     174.488E-06
             667     174.043E-06
             668     174.190E-06
             669     174.189E-06
             670     173.752E-06
             671     173.897E-06
             672     173.896E-06
             673     173.467E-06
             674     173.609E-06
             675     173.608E-06
             676     173.187E-06
             677     173.326E-06
             678     173.326E-06
             679     172.913E-06
             680     173.049E-06
             681     173.049E-06
             682     172.644E-06
             683     172.777E-06
             684     172.777E-06
             685     172.379E-06
             686     172.511E-06
             687     172.511E-06
             688     172.120E-06
             689     172.249E-06
             690     172.249E-06
             691     171.866E-06
             692     171.992E-06
             693     171.992E-06
             694     171.617E-06
             695     171.741E-06
             696     171.741E-06
             697     171.372E-06
             698     171.494E-06
             699     171.494E-06
             700     171.133E-06
             701     171.252E-06
             702     171.252E-06
             703     170.898E-06
             704     171.014E-06
             705     171.014E-06
             706     176.226E-06
             707     176.392E-06
             708     176.391E-06
             709     176.561E-06
             710     175.897E-06
             711     176.061E-06
             712     176.059E-06
             713     175.574E-06
             714     175.735E-06
             715     175.733E-06
             716     175.257E-06
             717     175.415E-06
             718     175.413E-06
             719     174.945E-06
             720     175.100E-06
             721     175.098E-06
             722     174.638E-06
             723     174.791E-06
             724     174.789E-06
             725     174.337E-06
             726     174.487E-06
             727     174.486E-06
             728     174.041E-06
             729     174.188E-06
             730     174.188E-06
             731     173.751E-06
             732     173.896E-06
             733     173.895E-06
             734     173.466E-06
             735     173.608E-06
             736     173.608E-06
             737     173.187E-06
             738     173.326E-06
             739     173.326E-06
             740     172.913E-06
             741     173.049E-06
             742     173.049E-06
             743     172.643E-06
             744     172.777E-06
             745     172.777E-06
             746     172.379E-06
             747     172.511E-06
             748     172.511E-06
             749     172.120E-06
             750     172.249E-06
             751     172.249E-06
             752     171.866E-06
             753     171.993E-06
             754     171.993E-06
             755     171.617E-06
             756     171.741E-06
             757     171.741E-06
             758     171.372E-06
             759     171.494E-06
             760     171.494E-06
             761     171.133E-06
             762     171.252E-06
             763     171.252E-06
             764     170.898E-06
             765     171.015E-06
             766     171.015E-06
             767     176.223E-06
             768     176.389E-06
             769     176.388E-06
             770     176.558E-06
             771     175.894E-06
             772     176.057E-06
             773     176.056E-06
             774     175.571E-06
             775     175.731E-06
             776     175.730E-06
             777     175.254E-06
             778     175.411E-06
             779     175.410E-06
             780     174.942E-06
             781     175.097E-06
             782     175.096E-06
             783     174.636E-06
             784     174.788E-06
             785     174.787E-06
             786     174.336E-06
             787     174.485E-06
             788     174.484E-06
             789     174.040E-06
             790     174.187E-06
             791     174.186E-06
             792     173.750E-06
             793     173.895E-06
             794     173.894E-06
             795     173.466E-06
             796     173.607E-06
             797     173.607E-06
             798     173.187E-06
             799     173.325E-06
             800     173.325E-06
             801     172.912E-06
             802     173.049E-06
             803     173.049E-06
             804     172.643E-06
             805     172.777E-06
             806     172.777E-06
             807     172.380E-06
             808     172.511E-06
             809     172.511E-06
             810     172.121E-06
             811     172.249E-06
             812     172.249E-06
             813     171.866E-06
             814     171.993E-06
             815     171.993E-06
             816     171.617E-06
             817     171.741E-06
             818     171.741E-06
             819     171.373E-06
             820     171.494E-06
             821     171.494E-06
             822     171.133E-06
             823     171.252E-06
             824     171.252E-06
             825     170.898E-06
             826     171.015E-06
             827     171.015E-06
             828     176.220E-06
             829     176.387E-06
             830     176.386E-06
             831     176.555E-06
             832     175.891E-06
             833     176.055E-06
             834     176.054E-06
             835     175.568E-06
             836     175.729E-06
             837     175.728E-06
             838     175.252E-06
             839     175.409E-06
             840     175.408E-06
             841     174.940E-06
             842     175.095E-06
             843     175.094E-06
             844     174.635E-06
             845     174.787E-06
             846     174.786E-06
             847     174.334E-06
             848     174.484E-06
             849     174.483E-06
             850     174.039E-06
             851     174.186E-06
             852     174.186E-06
             853     173.750E-06
             854     173.894E-06
             855     173.894E-06
             856     173.466E-06
             857     173.607E-06
             858     173.607E-06
             859     173.186E-06
             860     173.325E-06
             861     173.325E-06
             862     172.912E-06
             863     173.049E-06
             864     173.049E-06
             865     172.644E-06
             866     172.777E-06
             867     172.777E-06
             868     172.380E-06
             869     172.511E-06
             870     172.511E-06
             871     172.121E-06
             872     172.250E-06
             873     172.250E-06
             874     171.867E-06
             875     171.993E-06
             876     171.993E-06
             877     171.618E-06
             878     171.741E-06
             879     171.742E-06
             880     171.373E-06
             881     171.495E-06
             882     171.495E-06
             883     171.133E-06
             884     171.253E-06
             885     171.253E-06
             886     170.898E-06
             887     171.015E-06
             888     171.015E-06
             889     176.219E-06
             890     176.385E-06
             891     176.385E-06
             892     176.554E-06
             893     175.890E-06
             894     176.053E-06
             895     176.053E-06
             896     175.567E-06
             897     175.727E-06
             898     175.727E-06
             899     175.250E-06
             900     175.408E-06
             901     175.407E-06
             902     174.939E-06
             903     175.094E-06
             904     175.093E-06
             905     174.634E-06
             906     174.785E-06
             907     174.785E-06
             908     174.333E-06
             909     174.483E-06
             910     174.482E-06
             911     174.039E-06
             912     174.185E-06
             913     174.185E-06
             914     173.750E-06
             915     173.893E-06
             916     173.893E-06
             917     173.465E-06
             918     173.607E-06
             919     173.607E-06
             920     173.187E-06
             921     173.325E-06
             922     173.325E-06
             923     172.913E-06
             924     173.049E-06
             925     173.049E-06
             926     172.644E-06
             927     172.778E-06
             928     172.778E-06
             929     172.380E-06
             930     172.511E-06
             931     172.512E-06
             932     172.121E-06
             933     172.250E-06
             934     172.250E-06
             935     171.867E-06
             936     171.994E-06
             937     171.994E-06
             938     171.618E-06
             939     171.742E-06
             940     171.742E-06
             941     171.374E-06
             942     171.495E-06
             943     171.495E-06
             944     171.134E-06
             945     171.253E-06
             946     171.253E-06
             947     170.899E-06
             948     171.016E-06
             949     171.016E-06
             950     176.218E-06
             951     176.385E-06
             952     176.385E-06
             953     176.553E-06
             954     175.889E-06
             955     176.053E-06
             956     176.053E-06
             957     175.566E-06
             958     175.727E-06
             959     175.727E-06
             960     175.249E-06
             961     175.407E-06
             962     175.407E-06
             963     174.938E-06
             964     175.093E-06
             965     175.093E-06
             966     174.633E-06
             967     174.785E-06
             968     174.785E-06
             969     174.333E-06
             970     174.482E-06
             971     174.482E-06
             972     174.039E-06
             973     174.185E-06
             974     174.185E-06
             975     173.750E-06
             976     173.893E-06
             977     173.894E-06
             978     173.466E-06
             979     173.607E-06
             980     173.607E-06
             981     173.187E-06
             982     173.326E-06
             983     173.326E-06
             984     172.913E-06
             985     173.049E-06
             986     173.050E-06
             987     172.644E-06
             988     172.778E-06
             989     172.778E-06
             990     172.381E-06
             991     172.512E-06
             992     172.512E-06
             993     172.122E-06
             994     172.251E-06
             995     172.251E-06
             996     171.868E-06
             997     171.994E-06
             998     171.995E-06
             999     171.619E-06
            1000     171.743E-06
            1001     171.743E-06
            1002     171.374E-06
            1003     171.496E-06
            1004     171.496E-06
            1005     171.135E-06
            1006     171.254E-06
            1007     171.254E-06
            1008     170.900E-06
            1009     171.016E-06
            1010     171.017E-06
            1011     176.218E-06
            1012     176.385E-06
            1013     176.385E-06
            1014     176.553E-06
            1015     175.889E-06
            1016     176.053E-06
            1017     176.053E-06
            1018     175.566E-06
            1019     175.727E-06
            1020     175.727E-06
            1021     175.249E-06
            1022     175.407E-06
            1023     175.407E-06
            1024     174.938E-06
            1025     175.093E-06
            1026     175.093E-06
            1027     174.633E-06
            1028     174.785E-06
            1029     174.785E-06
            1030     174.334E-06
            1031     174.483E-06
            1032     174.483E-06
            1033     174.039E-06
            1034     174.186E-06
            1035     174.186E-06
            1036     173.750E-06
            1037     173.894E-06
            1038     173.894E-06
            1039     173.466E-06
            1040     173.607E-06
            1041     173.608E-06
            1042     173.188E-06
            1043     173.326E-06
            1044     173.327E-06
            1045     172.914E-06
            1046     173.050E-06
            1047     173.050E-06
            1048     172.645E-06
            1049     172.779E-06
            1050     172.779E-06
            1051     172.382E-06
            1052     172.513E-06
            1053     172.513E-06
            1054     172.123E-06
            1055     172.251E-06
            1056     172.252E-06
            1057     171.869E-06
            1058     171.995E-06
            1059     171.995E-06
            1060     171.620E-06
            1061     171.743E-06
            1062     171.744E-06
            1063     171.375E-06
            1064     171.497E-06
            1065     171.497E-06
            1066     171.135E-06
            1067     171.255E-06
            1068     171.255E-06
            1069     170.900E-06
            1070     171.017E-06
            1071     171.018E-06
            1072     176.219E-06
            1073     176.385E-06
            1074     176.386E-06
            1075     176.554E-06
            1076     175.890E-06
            1077     176.053E-06
            1078     176.054E-06
            1079     175.567E-06
            1080     175.727E-06
            1081     175.728E-06
            1082     175.250E-06
            1083     175.407E-06
            1084     175.408E-06
            1085     174.939E-06
            1086     175.094E-06
            1087     175.094E-06
            1088     174.634E-06
            1089     174.786E-06
            1090     174.786E-06
            1091     174.334E-06
            1092     174.483E-06
            1093     174.484E-06
            1094     174.040E-06
            1095     174.186E-06
            1096     174.187E-06
            1097     173.751E-06
            1098     173.895E-06
            1099     173.895E-06
            1100     173.467E-06
            1101     173.608E-06
            1102     173.609E-06
            1103     173.189E-06
            1104     173.327E-06
            1105     173.328E-06
            1106     172.915E-06
            1107     173.051E-06
            1108     173.052E-06
            1109     172.646E-06
            1110     172.780E-06
            1111     172.780E-06
            1112     172.383E-06
            1113     172.514E-06
            1114     172.514E-06
            1115     172.124E-06
            1116     172.252E-06
            1117     172.253E-06
            1118     171.870E-06
            1119     171.996E-06
            1120     171.997E-06
            1121     171.621E-06
            1122     171.744E-06
            1123     171.745E-06
            1124     171.376E-06
            1125     171.498E-06
            1126     171.498E-06
            1127     171.136E-06
            1128     171.256E-06
            1129     171.256E-06
            1130     170.901E-06
            1131     171.018E-06
            1132     171.019E-06
            1133     176.220E-06
            1134     176.387E-06
            1135     176.388E-06
            1136     176.555E-06
            1137     175.891E-06
            1138     176.054E-06
            1139     176.055E-06
            1140     175.568E-06
            1141     175.729E-06
            1142     175.729E-06
            1143     175.251E-06
            1144     175.409E-06
            1145     175.410E-06
            1146     174.941E-06
            1147     175.095E-06
            1148     175.096E-06
            1149     174.635E-06
            1150     174.787E-06
            1151     174.788E-06
            1152     174.336E-06
            1153     174.485E-06
            1154     174.486E-06
            1155     174.042E-06
            1156     174.188E-06
            1157     174.189E-06
            1158     173.753E-06
            1159     173.896E-06
            1160     173.897E-06
            1161     173.469E-06
            1162     173.610E-06
            1163     173.611E-06
            1164     173.190E-06
            1165     173.329E-06
            1166     173.329E-06
            1167     172.916E-06
            1168     173.052E-06
            1169     173.053E-06
            1170     172.648E-06
            1171     172.781E-06
            1172     172.782E-06
            1173     172.384E-06
            1174     172.515E-06
            1175     172.516E-06
            1176     172.125E-06
            1177     172.254E-06
            1178     172.254E-06
            1179     171.871E-06
            1180     171.997E-06
            1181     171.998E-06
            1182     171.622E-06
            1183     171.746E-06
            1184     171.746E-06
            1185     171.377E-06
            1186     171.499E-06
            1187     171.499E-06
            1188     171.137E-06
            1189     171.257E-06
            1190     171.257E-06
            1191     170.902E-06
            1192     171.019E-06
            1193     171.020E-06
            1194     176.222E-06
            1195     176.389E-06
            1196     176.390E-06
            1197     176.558E-06
            1198     175.893E-06
            1199     176.056E-06
            1200     176.058E-06
            1201     175.570E-06
            1202     175.730E-06
            1203     175.732E-06
            1204     175.253E-06
            1205     175.411E-06
            1206     175.412E-06
            1207     174.943E-06
            1208     175.097E-06
            1209     175.099E-06
            1210     174.638E-06
            1211     174.789E-06
            1212     174.791E-06
            1213     174.338E-06
            1214     174.487E-06
            1215     174.488E-06
            1216     174.044E-06
            1217     174.190E-06
            1218     174.191E-06
            1219     173.754E-06
            1220     173.898E-06
            1221     173.899E-06
            1222     173.471E-06
            1223     173.612E-06
            1224     173.613E-06
            1225     173.192E-06
            1226     173.330E-06
            1227     173.331E-06
            1228     172.918E-06
            1229     173.054E-06
            1230     173.055E-06
            1231     172.649E-06
            1232     172.783E-06
            1233     172.784E-06
            1234     172.385E-06
            1235     172.516E-06
            1236     172.517E-06
            1237     172.126E-06
            1238     172.255E-06
            1239     172.256E-06
            1240     171.872E-06
            1241     171.999E-06
            1242     171.999E-06
            1243     171.623E-06
            1244     171.747E-06
            1245     171.747E-06
            1246     171.378E-06
            1247     171.500E-06
            1248     171.501E-06
            1249     171.139E-06
            1250     171.258E-06
            1251     171.258E-06
            1252     170.903E-06
            1253     171.020E-06
            1254     171.021E-06
            1255     176.225E-06
            1256     176.392E-06
            1257     176.393E-06
            1258     176.560E-06
            1259     175.896E-06
            1260     176.059E-06
            1261     176.061E-06
            1262     175.573E-06
            1263     175.733E-06
            1264     175.735E-06
            1265     175.256E-06
            1266     175.414E-06
            1267     175.416E-06
            1268     174.946E-06
            1269     175.100E-06
            1270     175.102E-06
            1271     174.640E-06
            1272     174.792E-06
            1273     174.794E-06
            1274     174.341E-06
            1275     174.490E-06
            1276     174.491E-06
            1277     174.046E-06
            1278     174.193E-06
            1279     174.194E-06
            1280     173.757E-06
            1281     173.901E-06
            1282     173.902E-06
            1283     173.473E-06
            1284     173.614E-06
            1285     173.615E-06
            1286     173.194E-06
            1287     173.332E-06
            1288     173.333E-06
            1289     172.920E-06
            1290     173.056E-06
            1291     173.057E-06
            1292     172.651E-06
            1293     172.784E-06
            1294     172.785E-06
            1295     172.387E-06
            1296     172.518E-06
            1297     172.519E-06
            1298     172.128E-06
            1299     172.256E-06
            1300     172.257E-06
            1301     171.874E-06
            1302     172.000E-06
            1303     172.001E-06
            1304     171.624E-06
            1305     171.748E-06
            1306     171.749E-06
            1307     171.380E-06
            1308     171.501E-06
            1309     171.502E-06
            1310     171.140E-06
            1311     171.259E-06
            1312     171.260E-06
            1313     170.905E-06
            1314     171.022E-06
            1315     171.022E-06
            1316     176.228E-06
            1317     176.395E-06
            1318     176.398E-06
            1319     176.564E-06
            1320     175.899E-06
            1321     176.063E-06
            1322     176.065E-06
            1323     175.577E-06
            1324     175.737E-06
            1325     175.740E-06
            1326     175.260E-06
            1327     175.418E-06
            1328     175.420E-06
            1329     174.949E-06
            1330     175.104E-06
            1331     175.106E-06
            1332     174.644E-06
            1333     174.796E-06
            1334     174.798E-06
            1335     174.344E-06
            1336     174.493E-06
            1337     174.495E-06
            1338     174.049E-06
            1339     174.196E-06
            1340     174.198E-06
            1341     173.760E-06
            1342     173.904E-06
            1343     173.905E-06
            1344     173.475E-06
            1345     173.617E-06
            1346     173.618E-06
            1347     173.196E-06
            1348     173.335E-06
            1349     173.336E-06
            1350     172.922E-06
            1351     173.058E-06
            1352     173.059E-06
            1353     172.652E-06
            1354     172.786E-06
            1355     172.787E-06
            1356     172.388E-06
            1357     172.520E-06
            1358     172.520E-06
            1359     172.129E-06
            1360     172.258E-06
            1361     172.259E-06
            1362     171.875E-06
            1363     172.001E-06
            1364     172.002E-06
            1365     171.626E-06
            1366     171.750E-06
            1367     171.750E-06
            1368     171.381E-06
            1369     171.502E-06
            1370     171.503E-06
            1371     171.141E-06
            1372     171.260E-06
            1373     171.261E-06
            1374     170.906E-06
            1375     171.023E-06
            1376     171.023E-06
            1377     176.234E-06
            1378     176.400E-06
            1379     176.404E-06
            1380     176.570E-06
            1381     175.905E-06
            1382     176.068E-06
            1383     176.071E-06
            1384     175.582E-06
            1385     175.742E-06
            1386     175.746E-06
            1387     175.266E-06
            1388     175.423E-06
            1389     175.426E-06
            1390     174.954E-06
            1391     175.109E-06
            1392     175.112E-06
            1393     174.649E-06
            1394     174.801E-06
            1395     174.803E-06
            1396     174.348E-06
            1397     174.498E-06
            1398     174.500E-06
            1399     174.053E-06
            1400     174.200E-06
            1401     174.201E-06
            1402     173.763E-06
            1403     173.907E-06
            1404     173.908E-06
            1405     173.478E-06
            1406     173.619E-06
            1407     173.621E-06
            1408     173.198E-06
            1409     173.337E-06
            1410     173.338E-06
            1411     172.924E-06
            1412     173.060E-06
            1413     173.061E-06
            1414     172.654E-06
            1415     172.788E-06
            1416     172.789E-06
            1417     172.390E-06
            1418     172.521E-06
            1419     172.522E-06
            1420     172.131E-06
            1421     172.260E-06
            1422     172.260E-06
            1423     171.876E-06
            1424     172.003E-06
            1425     172.003E-06
            1426     171.627E-06
            1427     171.751E-06
            1428     171.751E-06
            1429     171.382E-06
            1430     171.504E-06
            1431     171.504E-06
            1432     171.142E-06
            1433     171.261E-06
            1434     171.262E-06
            1435     170.907E-06
            1436     171.024E-06
            1437     171.024E-06
            1438     176.240E-06
            1439     176.407E-06
            1440     176.412E-06
            1441     176.577E-06
            1442     175.912E-06
            1443     176.075E-06
            1444     176.080E-06
            1445     175.589E-06
            1446     175.750E-06
            1447     175.754E-06
            1448     175.272E-06
            1449     175.430E-06
            1450     175.434E-06
            1451     174.960E-06
            1452     175.116E-06
            1453     175.119E-06
            1454     174.654E-06
            1455     174.806E-06
            1456     174.809E-06
            1457     174.352E-06
            1458     174.502E-06
            1459     174.505E-06
            1460     174.056E-06
            1461     174.204E-06
            1462     174.205E-06
            1463     173.766E-06
            1464     173.910E-06
            1465     173.912E-06
            1466     173.480E-06
            1467     173.622E-06
            1468     173.623E-06
            1469     173.200E-06
            1470     173.340E-06
            1471     173.341E-06
            1472     172.926E-06
            1473     173.062E-06
            1474     173.063E-06
            1475     172.656E-06
            1476     172.790E-06
            1477     172.791E-06
            1478     172.392E-06
            1479     172.523E-06
            1480     172.524E-06
            1481     172.132E-06
            1482     172.261E-06
            1483     172.262E-06
            1484     171.878E-06
            1485     172.004E-06
            1486     172.005E-06
            1487     171.628E-06
            1488     171.752E-06
            1489     171.753E-06
            1490     171.383E-06
            1491     171.505E-06
            1492     171.505E-06
            1493     171.143E-06
            1494     171.263E-06
            1495     171.263E-06
            1496     170.908E-06
            1497     171.025E-06
            1498     171.025E-06
            1499     176.251E-06
            1500     176.417E-06
            1501     176.425E-06
            1502     176.587E-06
            1503     175.922E-06
            1504     176.085E-06
            1505     176.093E-06
            1506     175.599E-06
            1507     175.760E-06
            1508     175.766E-06
            1509     175.281E-06
            1510     175.439E-06
            1511     175.444E-06
            1512     174.967E-06
            1513     175.123E-06
            1514     175.127E-06
            1515     174.659E-06
            1516     174.812E-06
            1517     174.815E-06
            1518     174.357E-06
            1519     174.507E-06
            1520     174.509E-06
            1521     174.060E-06
            1522     174.208E-06
            1523     174.209E-06
            1524     173.769E-06
            1525     173.913E-06
            1526     173.915E-06
            1527     173.483E-06
            1528     173.625E-06
            1529     173.626E-06
            1530     173.202E-06
            1531     173.342E-06
            1532     173.343E-06
            1533     172.927E-06
            1534     173.064E-06
            1535     173.065E-06
            1536     172.658E-06
            1537     172.792E-06
            1538     172.792E-06
            1539     172.393E-06
            1540     172.524E-06
            1541     172.525E-06
            1542     172.133E-06
            1543     172.262E-06
            1544     172.263E-06
            1545     171.879E-06
            1546     172.005E-06
            1547     172.006E-06
            1548     171.629E-06
            1549     171.753E-06
            1550     171.754E-06
            1551     171.384E-06
            1552     171.506E-06
            1553     171.506E-06
            1554     171.144E-06
            1555     171.264E-06
            1556     171.264E-06
            1557     170.909E-06
            1558     171.026E-06
            1559     171.026E-06
            1560     176.268E-06
            1561     176.434E-06
            1562     176.450E-06
            1563     176.605E-06
            1564     175.938E-06
            1565     176.103E-06
            1566     176.114E-06
            1567     175.611E-06
            1568     175.774E-06
            1569     175.782E-06
            1570     175.290E-06
            1571     175.450E-06
            1572     175.455E-06
            1573     174.974E-06
            1574     175.131E-06
            1575     175.135E-06
            1576     174.664E-06
            1577     174.818E-06
            1578     174.821E-06
            1579     174.361E-06
            1580     174.512E-06
            1581     174.513E-06
            1582     174.063E-06
            1583     174.211E-06
            1584     174.212E-06
            1585     173.771E-06
            1586     173.916E-06
            1587     173.917E-06
            1588     173.485E-06
            1589     173.627E-06
            1590     173.628E-06
            1591     173.204E-06
            1592     173.344E-06
            1593     173.344E-06
            1594     172.929E-06
            1595     173.066E-06
            1596     173.066E-06
            1597     172.659E-06
            1598     172.793E-06
            1599     172.793E-06
            1600     172.394E-06
            1601     172.526E-06
            1602     172.526E-06
            1603     172.134E-06
            1604     172.263E-06
            1605     172.264E-06
            1606     171.880E-06
            1607     172.006E-06
            1608     172.007E-06
            1609     171.630E-06
            1610     171.754E-06
            1611     171.755E-06
            1612     171.385E-06
            1613     171.507E-06
            1614     171.507E-06
            1615     171.145E-06
            1616     171.265E-06
            1617     171.265E-06
            1618     170.910E-06
            1619     171.027E-06
            1620     171.027E-06
            1621     176.300E-06
            1622     176.475E-06
            1623     176.507E-06
            1624     176.641E-06
            1625     175.958E-06
            1626     176.130E-06
            1627     176.139E-06
            1628     175.624E-06
            1629     175.790E-06
            1630     175.795E-06
            1631     175.298E-06
            1632     175.460E-06
            1633     175.463E-06
            1634     174.980E-06
            1635     175.138E-06
            1636     175.139E-06
            1637     174.668E-06
            1638     174.823E-06
            1639     174.824E-06
            1640     174.364E-06
            1641     174.515E-06
            1642     174.516E-06
            1643     174.065E-06
            1644     174.213E-06
            1645     174.214E-06
            1646     173.773E-06
            1647     173.918E-06
            1648     173.918E-06
            1649     173.486E-06
            1650     173.629E-06
            1651     173.629E-06
            1652     173.205E-06
            1653     173.345E-06
            1654     173.345E-06
            1655     172.930E-06
            1656     173.067E-06
            1657     173.067E-06
            1658     172.660E-06
            1659     172.794E-06
            1660     172.794E-06
            1661     172.395E-06
            1662     172.526E-06
            1663     172.527E-06
            1664     172.135E-06
            1665     172.264E-06
            1666     172.264E-06
            1667     171.881E-06
            1668     172.007E-06
            1669     172.007E-06
            1670     171.631E-06
            1671     171.755E-06
            1672     171.755E-06
            1673     171.386E-06
            1674     171.508E-06
            1675     171.508E-06
            1676     171.146E-06
            1677     171.265E-06
            1678     171.266E-06
            1679     170.911E-06
            1680     171.028E-06
            1681     171.028E-06


  Minimum            170.897E-06
         At Node              42

  Maximum            176.724E-06
         At Node             421

           Total     291.762E-03


********************************************************************************
Field Output Report, written Wed Mar 07 18:30:39 2018

Source 1
---------

   ODB: C:/Users/Wagner/Desktop/Projeto FEM/FEM-matlab/Benchmarks/Vaso de Pressao/Job-1.odb
   Step: Step-1
   Frame: Increment      1: Step Time =    1.000

Loc 1 : Nodal values from source 1

Output sorted by column "Node Label".

Field Output reported at nodes for part: PART-1-1

            Node            U.U1
           Label          @Loc 1
---------------------------------
               1     176.658E-06
               2     176.275E-06
               3     175.928E-06
               4     175.596E-06
               5     175.272E-06
               6     174.956E-06
               7     174.646E-06
               8     174.343E-06
               9     174.045E-06
              10     173.754E-06
              11     173.468E-06
              12     173.188E-06
              13     172.913E-06
              14     172.644E-06
              15     172.379E-06
              16     172.120E-06
              17     171.866E-06
              18     171.616E-06
              19     171.372E-06
              20     171.132E-06
              21     170.897E-06
              22     176.592E-06
              23     176.258E-06
              24     175.923E-06
              25     175.593E-06
              26     175.271E-06
              27     174.955E-06
              28     174.645E-06
              29     174.342E-06
              30     174.045E-06
              31     173.754E-06
              32     173.468E-06
              33     173.188E-06
              34     172.913E-06
              35     172.644E-06
              36     172.379E-06
              37     172.120E-06
              38     171.866E-06
              39     171.616E-06
              40     171.372E-06
              41     171.132E-06
              42     170.897E-06
              43     176.577E-06
              44     176.242E-06
              45     175.913E-06
              46     175.587E-06
              47     175.267E-06
              48     174.952E-06
              49     174.644E-06
              50     174.341E-06
              51     174.044E-06
              52     173.753E-06
              53     173.468E-06
              54     173.188E-06
              55     172.913E-06
              56     172.643E-06
              57     172.379E-06
              58     172.120E-06
              59     171.866E-06
              60     171.616E-06
              61     171.372E-06
              62     171.132E-06
              63     170.897E-06
              64     176.568E-06
              65     176.233E-06
              66     175.905E-06
              67     175.581E-06
              68     175.262E-06
              69     174.949E-06
              70     174.641E-06
              71     174.339E-06
              72     174.043E-06
              73     173.752E-06
              74     173.467E-06
              75     173.187E-06
              76     172.913E-06
              77     172.643E-06
              78     172.379E-06
              79     172.120E-06
              80     171.866E-06
              81     171.616E-06
              82     171.372E-06
              83     171.132E-06
              84     170.897E-06
              85     176.563E-06
              86     176.228E-06
              87     175.899E-06
              88     175.576E-06
              89     175.258E-06
              90     174.946E-06
              91     174.639E-06
              92     174.338E-06
              93     174.042E-06
              94     173.751E-06
              95     173.466E-06
              96     173.187E-06
              97     172.912E-06
              98     172.643E-06
              99     172.379E-06
             100     172.120E-06
             101     171.866E-06
             102     171.617E-06
             103     171.372E-06
             104     171.132E-06
             105     170.897E-06
             106     176.559E-06
             107     176.224E-06
             108     175.895E-06
             109     175.572E-06
             110     175.255E-06
             111     174.943E-06
             112     174.637E-06
             113     174.336E-06
             114     174.041E-06
             115     173.751E-06
             116     173.466E-06
             117     173.186E-06
             118     172.912E-06
             119     172.643E-06
             120     172.379E-06
             121     172.120E-06
             122     171.866E-06
             123     171.617E-06
             124     171.372E-06
             125     171.133E-06
             126     170.898E-06
             127     176.556E-06
             128     176.221E-06
             129     175.892E-06
             130     175.569E-06
             131     175.252E-06
             132     174.941E-06
             133     174.635E-06
             134     174.335E-06
             135     174.040E-06
             136     173.750E-06
             137     173.465E-06
             138     173.186E-06
             139     172.912E-06
             140     172.643E-06
             141     172.379E-06
             142     172.120E-06
             143     171.866E-06
             144     171.617E-06
             145     171.373E-06
             146     171.133E-06
             147     170.898E-06
             148     176.554E-06
             149     176.219E-06
             150     175.890E-06
             151     175.567E-06
             152     175.250E-06
             153     174.939E-06
             154     174.634E-06
             155     174.334E-06
             156     174.039E-06
             157     173.749E-06
             158     173.465E-06
             159     173.186E-06
             160     172.912E-06
             161     172.643E-06
             162     172.380E-06
             163     172.121E-06
             164     171.867E-06
             165     171.618E-06
             166     171.373E-06
             167     171.133E-06
             168     170.898E-06
             169     176.553E-06
             170     176.218E-06
             171     175.889E-06
             172     175.566E-06
             173     175.249E-06
             174     174.938E-06
             175     174.633E-06
             176     174.333E-06
             177     174.038E-06
             178     173.749E-06
             179     173.465E-06
             180     173.186E-06
             181     172.913E-06
             182     172.644E-06
             183     172.380E-06
             184     172.121E-06
             185     171.867E-06
             186     171.618E-06
             187     171.374E-06
             188     171.134E-06
             189     170.899E-06
             190     176.553E-06
             191     176.218E-06
             192     175.889E-06
             193     175.566E-06
             194     175.249E-06
             195     174.938E-06
             196     174.633E-06
             197     174.333E-06
             198     174.039E-06
             199     173.750E-06
             200     173.466E-06
             201     173.187E-06
             202     172.913E-06
             203     172.645E-06
             204     172.381E-06
             205     172.122E-06
             206     171.868E-06
             207     171.619E-06
             208     171.375E-06
             209     171.135E-06
             210     170.900E-06
             211     176.553E-06
             212     176.218E-06
             213     175.889E-06
             214     175.566E-06
             215     175.249E-06
             216     174.938E-06
             217     174.633E-06
             218     174.334E-06
             219     174.039E-06
             220     173.750E-06
             221     173.466E-06
             222     173.188E-06
             223     172.914E-06
             224     172.645E-06
             225     172.382E-06
             226     172.123E-06
             227     171.869E-06
             228     171.620E-06
             229     171.375E-06
             230     171.136E-06
             231     170.901E-06
             232     176.554E-06
             233     176.219E-06
             234     175.890E-06
             235     175.567E-06
             236     175.250E-06
             237     174.939E-06
             238     174.634E-06
             239     174.335E-06
             240     174.040E-06
             241     173.751E-06
             242     173.468E-06
             243     173.189E-06
             244     172.915E-06
             245     172.647E-06
             246     172.383E-06
             247     172.124E-06
             248     171.870E-06
             249     171.621E-06
             250     171.376E-06
             251     171.137E-06
             252     170.902E-06
             253     176.556E-06
             254     176.221E-06
             255     175.891E-06
             256     175.569E-06
             257     175.252E-06
             258     174.941E-06
             259     174.636E-06
             260     174.336E-06
             261     174.042E-06
             262     173.753E-06
             263     173.469E-06
             264     173.191E-06
             265     172.917E-06
             266     172.648E-06
             267     172.384E-06
             268     172.125E-06
             269     171.871E-06
             270     171.622E-06
             271     171.378E-06
             272     171.138E-06
             273     170.903E-06
             274     176.559E-06
             275     176.223E-06
             276     175.894E-06
             277     175.571E-06
             278     175.254E-06
             279     174.944E-06
             280     174.639E-06
             281     174.339E-06
             282     174.045E-06
             283     173.755E-06
             284     173.471E-06
             285     173.192E-06
             286     172.918E-06
             287     172.650E-06
             288     172.386E-06
             289     172.127E-06
             290     171.873E-06
             291     171.623E-06
             292     171.379E-06
             293     171.139E-06
             294     170.904E-06
             295     176.562E-06
             296     176.226E-06
             297     175.897E-06
             298     175.574E-06
             299     175.258E-06
             300     174.947E-06
             301     174.642E-06
             302     174.342E-06
             303     174.047E-06
             304     173.758E-06
             305     173.474E-06
             306     173.194E-06
             307     172.920E-06
             308     172.651E-06
             309     172.387E-06
             310     172.128E-06
             311     171.874E-06
             312     171.625E-06
             313     171.380E-06
             314     171.140E-06
             315     170.905E-06
             316     176.566E-06
             317     176.230E-06
             318     175.901E-06
             319     175.579E-06
             320     175.262E-06
             321     174.952E-06
             322     174.646E-06
             323     174.346E-06
             324     174.051E-06
             325     173.761E-06
             326     173.476E-06
             327     173.197E-06
             328     172.922E-06
             329     172.653E-06
             330     172.389E-06
             331     172.130E-06
             332     171.875E-06
             333     171.626E-06
             334     171.381E-06
             335     171.141E-06
             336     170.906E-06
             337     176.573E-06
             338     176.236E-06
             339     175.907E-06
             340     175.585E-06
             341     175.268E-06
             342     174.957E-06
             343     174.651E-06
             344     174.350E-06
             345     174.054E-06
             346     173.764E-06
             347     173.479E-06
             348     173.199E-06
             349     172.924E-06
             350     172.655E-06
             351     172.390E-06
             352     172.131E-06
             353     171.877E-06
             354     171.627E-06
             355     171.382E-06
             356     171.143E-06
             357     170.907E-06
             358     176.581E-06
             359     176.245E-06
             360     175.916E-06
             361     175.594E-06
             362     175.276E-06
             363     174.963E-06
             364     174.656E-06
             365     174.354E-06
             366     174.058E-06
             367     173.767E-06
             368     173.481E-06
             369     173.201E-06
             370     172.926E-06
             371     172.656E-06
             372     172.392E-06
             373     172.132E-06
             374     171.878E-06
             375     171.628E-06
             376     171.384E-06
             377     171.144E-06
             378     170.908E-06
             379     176.594E-06
             380     176.258E-06
             381     175.929E-06
             382     175.605E-06
             383     175.285E-06
             384     174.970E-06
             385     174.662E-06
             386     174.359E-06
             387     174.061E-06
             388     173.770E-06
             389     173.484E-06
             390     173.203E-06
             391     172.928E-06
             392     172.658E-06
             393     172.393E-06
             394     172.134E-06
             395     171.879E-06
             396     171.629E-06
             397     171.385E-06
             398     171.145E-06
             399     170.909E-06
             400     176.618E-06
             401     176.282E-06
             402     175.948E-06
             403     175.618E-06
             404     175.294E-06
             405     174.977E-06
             406     174.666E-06
             407     174.362E-06
             408     174.064E-06
             409     173.772E-06
             410     173.485E-06
             411     173.204E-06
             412     172.929E-06
             413     172.659E-06
             414     172.394E-06
             415     172.135E-06
             416     171.880E-06
             417     171.630E-06
             418     171.385E-06
             419     171.145E-06
             420     170.910E-06
             421     176.724E-06
             422     176.323E-06
             423     175.966E-06
             424     175.627E-06
             425     175.300E-06
             426     174.981E-06
             427     174.669E-06
             428     174.364E-06
             429     174.065E-06
             430     173.773E-06
             431     173.486E-06
             432     173.205E-06
             433     172.930E-06
             434     172.660E-06
             435     172.395E-06
             436     172.135E-06
             437     171.881E-06
             438     171.631E-06
             439     171.386E-06
             440     171.146E-06
             441     170.911E-06
             442     176.458E-06
             443     176.268E-06
             444     176.437E-06
             445     176.425E-06
             446     176.607E-06
             447     176.099E-06
             448     175.927E-06
             449     176.096E-06
             450     176.090E-06
             451     175.761E-06
             452     175.596E-06
             453     175.760E-06
             454     175.757E-06
             455     175.433E-06
             456     175.272E-06
             457     175.433E-06
             458     175.431E-06
             459     175.113E-06
             460     174.956E-06
             461     175.113E-06
             462     175.112E-06
             463     174.800E-06
             464     174.646E-06
             465     174.800E-06
             466     174.799E-06
             467     174.494E-06
             468     174.343E-06
             469     174.494E-06
             470     174.493E-06
             471     174.193E-06
             472     174.046E-06
             473     174.193E-06
             474     174.193E-06
             475     173.899E-06
             476     173.754E-06
             477     173.899E-06
             478     173.899E-06
             479     173.610E-06
             480     173.468E-06
             481     173.610E-06
             482     173.610E-06
             483     173.327E-06
             484     173.188E-06
             485     173.328E-06
             486     173.327E-06
             487     173.050E-06
             488     172.913E-06
             489     173.050E-06
             490     173.050E-06
             491     172.778E-06
             492     172.644E-06
             493     172.778E-06
             494     172.778E-06
             495     172.511E-06
             496     172.379E-06
             497     172.511E-06
             498     172.511E-06
             499     172.249E-06
             500     172.120E-06
             501     172.249E-06
             502     172.249E-06
             503     171.992E-06
             504     171.866E-06
             505     171.992E-06
             506     171.992E-06
             507     171.740E-06
             508     171.617E-06
             509     171.741E-06
             510     171.740E-06
             511     171.494E-06
             512     171.372E-06
             513     171.494E-06
             514     171.494E-06
             515     171.251E-06
             516     171.132E-06
             517     171.252E-06
             518     171.251E-06
             519     171.014E-06
             520     170.897E-06
             521     171.014E-06
             522     171.014E-06
             523     176.249E-06
             524     176.415E-06
             525     176.409E-06
             526     176.584E-06
             527     175.918E-06
             528     176.083E-06
             529     176.077E-06
             530     175.591E-06
             531     175.753E-06
             532     175.750E-06
             533     175.269E-06
             534     175.429E-06
             535     175.427E-06
             536     174.954E-06
             537     175.111E-06
             538     175.109E-06
             539     174.645E-06
             540     174.799E-06
             541     174.797E-06
             542     174.342E-06
             543     174.493E-06
             544     174.492E-06
             545     174.045E-06
             546     174.193E-06
             547     174.192E-06
             548     173.754E-06
             549     173.899E-06
             550     173.898E-06
             551     173.468E-06
             552     173.610E-06
             553     173.610E-06
             554     173.188E-06
             555     173.327E-06
             556     173.327E-06
             557     172.913E-06
             558     173.050E-06
             559     173.050E-06
             560     172.644E-06
             561     172.778E-06
             562     172.778E-06
             563     172.379E-06
             564     172.511E-06
             565     172.511E-06
             566     172.120E-06
             567     172.249E-06
             568     172.249E-06
             569     171.866E-06
             570     171.992E-06
             571     171.992E-06
             572     171.617E-06
             573     171.741E-06
             574     171.741E-06
             575     171.372E-06
             576     171.494E-06
             577     171.494E-06
             578     171.132E-06
             579     171.252E-06
             580     171.251E-06
             581     170.897E-06
             582     171.014E-06
             583     171.014E-06
             584     176.238E-06
             585     176.404E-06
             586     176.400E-06
             587     176.573E-06
             588     175.909E-06
             589     176.072E-06
             590     176.069E-06
             591     175.584E-06
             592     175.746E-06
             593     175.742E-06
             594     175.265E-06
             595     175.424E-06
             596     175.421E-06
             597     174.951E-06
             598     175.107E-06
             599     175.105E-06
             600     174.643E-06
             601     174.796E-06
             602     174.795E-06
             603     174.341E-06
             604     174.491E-06
             605     174.490E-06
             606     174.044E-06
             607     174.191E-06
             608     174.191E-06
             609     173.753E-06
             610     173.898E-06
             611     173.897E-06
             612     173.468E-06
             613     173.610E-06
             614     173.609E-06
             615     173.188E-06
             616     173.327E-06
             617     173.327E-06
             618     172.913E-06
             619     173.050E-06
             620     173.049E-06
             621     172.644E-06
             622     172.778E-06
             623     172.777E-06
             624     172.379E-06
             625     172.511E-06
             626     172.511E-06
             627     172.120E-06
             628     172.249E-06
             629     172.249E-06
             630     171.866E-06
             631     171.992E-06
             632     171.992E-06
             633     171.617E-06
             634     171.741E-06
             635     171.741E-06
             636     171.372E-06
             637     171.494E-06
             638     171.494E-06
             639     171.132E-06
             640     171.252E-06
             641     171.252E-06
             642     170.897E-06
             643     171.014E-06
             644     171.014E-06
             645     176.231E-06
             646     176.397E-06
             647     176.395E-06
             648     176.566E-06
             649     175.902E-06
             650     176.065E-06
             651     176.063E-06
             652     175.579E-06
             653     175.739E-06
             654     175.737E-06
             655     175.261E-06
             656     175.419E-06
             657     175.417E-06
             658     174.948E-06
             659     175.103E-06
             660     175.102E-06
             661     174.641E-06
             662     174.793E-06
             663     174.792E-06
             664     174.339E-06
             665     174.489E-06
             666     174.488E-06
             667     174.043E-06
             668     174.190E-06
             669     174.189E-06
             670     173.752E-06
             671     173.897E-06
             672     173.896E-06
             673     173.467E-06
             674     173.609E-06
             675     173.608E-06
             676     173.187E-06
             677     173.326E-06
             678     173.326E-06
             679     172.913E-06
             680     173.049E-06
             681     173.049E-06
             682     172.644E-06
             683     172.777E-06
             684     172.777E-06
             685     172.379E-06
             686     172.511E-06
             687     172.511E-06
             688     172.120E-06
             689     172.249E-06
             690     172.249E-06
             691     171.866E-06
             692     171.992E-06
             693     171.992E-06
             694     171.617E-06
             695     171.741E-06
             696     171.741E-06
             697     171.372E-06
             698     171.494E-06
             699     171.494E-06
             700     171.133E-06
             701     171.252E-06
             702     171.252E-06
             703     170.898E-06
             704     171.014E-06
             705     171.014E-06
             706     176.226E-06
             707     176.392E-06
             708     176.391E-06
             709     176.561E-06
             710     175.897E-06
             711     176.061E-06
             712     176.059E-06
             713     175.574E-06
             714     175.735E-06
             715     175.733E-06
             716     175.257E-06
             717     175.415E-06
             718     175.413E-06
             719     174.945E-06
             720     175.100E-06
             721     175.098E-06
             722     174.638E-06
             723     174.791E-06
             724     174.789E-06
             725     174.337E-06
             726     174.487E-06
             727     174.486E-06
             728     174.041E-06
             729     174.188E-06
             730     174.188E-06
             731     173.751E-06
             732     173.896E-06
             733     173.895E-06
             734     173.466E-06
             735     173.608E-06
             736     173.608E-06
             737     173.187E-06
             738     173.326E-06
             739     173.326E-06
             740     172.913E-06
             741     173.049E-06
             742     173.049E-06
             743     172.643E-06
             744     172.777E-06
             745     172.777E-06
             746     172.379E-06
             747     172.511E-06
             748     172.511E-06
             749     172.120E-06
             750     172.249E-06
             751     172.249E-06
             752     171.866E-06
             753     171.993E-06
             754     171.993E-06
             755     171.617E-06
             756     171.741E-06
             757     171.741E-06
             758     171.372E-06
             759     171.494E-06
             760     171.494E-06
             761     171.133E-06
             762     171.252E-06
             763     171.252E-06
             764     170.898E-06
             765     171.015E-06
             766     171.015E-06
             767     176.223E-06
             768     176.389E-06
             769     176.388E-06
             770     176.558E-06
             771     175.894E-06
             772     176.057E-06
             773     176.056E-06
             774     175.571E-06
             775     175.731E-06
             776     175.730E-06
             777     175.254E-06
             778     175.411E-06
             779     175.410E-06
             780     174.942E-06
             781     175.097E-06
             782     175.096E-06
             783     174.636E-06
             784     174.788E-06
             785     174.787E-06
             786     174.336E-06
             787     174.485E-06
             788     174.484E-06
             789     174.040E-06
             790     174.187E-06
             791     174.186E-06
             792     173.750E-06
             793     173.895E-06
             794     173.894E-06
             795     173.466E-06
             796     173.607E-06
             797     173.607E-06
             798     173.187E-06
             799     173.325E-06
             800     173.325E-06
             801     172.912E-06
             802     173.049E-06
             803     173.049E-06
             804     172.643E-06
             805     172.777E-06
             806     172.777E-06
             807     172.380E-06
             808     172.511E-06
             809     172.511E-06
             810     172.121E-06
             811     172.249E-06
             812     172.249E-06
             813     171.866E-06
             814     171.993E-06
             815     171.993E-06
             816     171.617E-06
             817     171.741E-06
             818     171.741E-06
             819     171.373E-06
             820     171.494E-06
             821     171.494E-06
             822     171.133E-06
             823     171.252E-06
             824     171.252E-06
             825     170.898E-06
             826     171.015E-06
             827     171.015E-06
             828     176.220E-06
             829     176.387E-06
             830     176.386E-06
             831     176.555E-06
             832     175.891E-06
             833     176.055E-06
             834     176.054E-06
             835     175.568E-06
             836     175.729E-06
             837     175.728E-06
             838     175.252E-06
             839     175.409E-06
             840     175.408E-06
             841     174.940E-06
             842     175.095E-06
             843     175.094E-06
             844     174.635E-06
             845     174.787E-06
             846     174.786E-06
             847     174.334E-06
             848     174.484E-06
             849     174.483E-06
             850     174.039E-06
             851     174.186E-06
             852     174.186E-06
             853     173.750E-06
             854     173.894E-06
             855     173.894E-06
             856     173.466E-06
             857     173.607E-06
             858     173.607E-06
             859     173.186E-06
             860     173.325E-06
             861     173.325E-06
             862     172.912E-06
             863     173.049E-06
             864     173.049E-06
             865     172.644E-06
             866     172.777E-06
             867     172.777E-06
             868     172.380E-06
             869     172.511E-06
             870     172.511E-06
             871     172.121E-06
             872     172.250E-06
             873     172.250E-06
             874     171.867E-06
             875     171.993E-06
             876     171.993E-06
             877     171.618E-06
             878     171.741E-06
             879     171.742E-06
             880     171.373E-06
             881     171.495E-06
             882     171.495E-06
             883     171.133E-06
             884     171.253E-06
             885     171.253E-06
             886     170.898E-06
             887     171.015E-06
             888     171.015E-06
             889     176.219E-06
             890     176.385E-06
             891     176.385E-06
             892     176.554E-06
             893     175.890E-06
             894     176.053E-06
             895     176.053E-06
             896     175.567E-06
             897     175.727E-06
             898     175.727E-06
             899     175.250E-06
             900     175.408E-06
             901     175.407E-06
             902     174.939E-06
             903     175.094E-06
             904     175.093E-06
             905     174.634E-06
             906     174.785E-06
             907     174.785E-06
             908     174.333E-06
             909     174.483E-06
             910     174.482E-06
             911     174.039E-06
             912     174.185E-06
             913     174.185E-06
             914     173.750E-06
             915     173.893E-06
             916     173.893E-06
             917     173.465E-06
             918     173.607E-06
             919     173.607E-06
             920     173.187E-06
             921     173.325E-06
             922     173.325E-06
             923     172.913E-06
             924     173.049E-06
             925     173.049E-06
             926     172.644E-06
             927     172.778E-06
             928     172.778E-06
             929     172.380E-06
             930     172.511E-06
             931     172.512E-06
             932     172.121E-06
             933     172.250E-06
             934     172.250E-06
             935     171.867E-06
             936     171.994E-06
             937     171.994E-06
             938     171.618E-06
             939     171.742E-06
             940     171.742E-06
             941     171.374E-06
             942     171.495E-06
             943     171.495E-06
             944     171.134E-06
             945     171.253E-06
             946     171.253E-06
             947     170.899E-06
             948     171.016E-06
             949     171.016E-06
             950     176.218E-06
             951     176.385E-06
             952     176.385E-06
             953     176.553E-06
             954     175.889E-06
             955     176.053E-06
             956     176.053E-06
             957     175.566E-06
             958     175.727E-06
             959     175.727E-06
             960     175.249E-06
             961     175.407E-06
             962     175.407E-06
             963     174.938E-06
             964     175.093E-06
             965     175.093E-06
             966     174.633E-06
             967     174.785E-06
             968     174.785E-06
             969     174.333E-06
             970     174.482E-06
             971     174.482E-06
             972     174.039E-06
             973     174.185E-06
             974     174.185E-06
             975     173.750E-06
             976     173.893E-06
             977     173.894E-06
             978     173.466E-06
             979     173.607E-06
             980     173.607E-06
             981     173.187E-06
             982     173.326E-06
             983     173.326E-06
             984     172.913E-06
             985     173.049E-06
             986     173.050E-06
             987     172.644E-06
             988     172.778E-06
             989     172.778E-06
             990     172.381E-06
             991     172.512E-06
             992     172.512E-06
             993     172.122E-06
             994     172.251E-06
             995     172.251E-06
             996     171.868E-06
             997     171.994E-06
             998     171.995E-06
             999     171.619E-06
            1000     171.743E-06
            1001     171.743E-06
            1002     171.374E-06
            1003     171.496E-06
            1004     171.496E-06
            1005     171.135E-06
            1006     171.254E-06
            1007     171.254E-06
            1008     170.900E-06
            1009     171.016E-06
            1010     171.017E-06
            1011     176.218E-06
            1012     176.385E-06
            1013     176.385E-06
            1014     176.553E-06
            1015     175.889E-06
            1016     176.053E-06
            1017     176.053E-06
            1018     175.566E-06
            1019     175.727E-06
            1020     175.727E-06
            1021     175.249E-06
            1022     175.407E-06
            1023     175.407E-06
            1024     174.938E-06
            1025     175.093E-06
            1026     175.093E-06
            1027     174.633E-06
            1028     174.785E-06
            1029     174.785E-06
            1030     174.334E-06
            1031     174.483E-06
            1032     174.483E-06
            1033     174.039E-06
            1034     174.186E-06
            1035     174.186E-06
            1036     173.750E-06
            1037     173.894E-06
            1038     173.894E-06
            1039     173.466E-06
            1040     173.607E-06
            1041     173.608E-06
            1042     173.188E-06
            1043     173.326E-06
            1044     173.327E-06
            1045     172.914E-06
            1046     173.050E-06
            1047     173.050E-06
            1048     172.645E-06
            1049     172.779E-06
            1050     172.779E-06
            1051     172.382E-06
            1052     172.513E-06
            1053     172.513E-06
            1054     172.123E-06
            1055     172.251E-06
            1056     172.252E-06
            1057     171.869E-06
            1058     171.995E-06
            1059     171.995E-06
            1060     171.620E-06
            1061     171.743E-06
            1062     171.744E-06
            1063     171.375E-06
            1064     171.497E-06
            1065     171.497E-06
            1066     171.135E-06
            1067     171.255E-06
            1068     171.255E-06
            1069     170.900E-06
            1070     171.017E-06
            1071     171.018E-06
            1072     176.219E-06
            1073     176.385E-06
            1074     176.386E-06
            1075     176.554E-06
            1076     175.890E-06
            1077     176.053E-06
            1078     176.054E-06
            1079     175.567E-06
            1080     175.727E-06
            1081     175.728E-06
            1082     175.250E-06
            1083     175.407E-06
            1084     175.408E-06
            1085     174.939E-06
            1086     175.094E-06
            1087     175.094E-06
            1088     174.634E-06
            1089     174.786E-06
            1090     174.786E-06
            1091     174.334E-06
            1092     174.483E-06
            1093     174.484E-06
            1094     174.040E-06
            1095     174.186E-06
            1096     174.187E-06
            1097     173.751E-06
            1098     173.895E-06
            1099     173.895E-06
            1100     173.467E-06
            1101     173.608E-06
            1102     173.609E-06
            1103     173.189E-06
            1104     173.327E-06
            1105     173.328E-06
            1106     172.915E-06
            1107     173.051E-06
            1108     173.052E-06
            1109     172.646E-06
            1110     172.780E-06
            1111     172.780E-06
            1112     172.383E-06
            1113     172.514E-06
            1114     172.514E-06
            1115     172.124E-06
            1116     172.252E-06
            1117     172.253E-06
            1118     171.870E-06
            1119     171.996E-06
            1120     171.997E-06
            1121     171.621E-06
            1122     171.744E-06
            1123     171.745E-06
            1124     171.376E-06
            1125     171.498E-06
            1126     171.498E-06
            1127     171.136E-06
            1128     171.256E-06
            1129     171.256E-06
            1130     170.901E-06
            1131     171.018E-06
            1132     171.019E-06
            1133     176.220E-06
            1134     176.387E-06
            1135     176.388E-06
            1136     176.555E-06
            1137     175.891E-06
            1138     176.054E-06
            1139     176.055E-06
            1140     175.568E-06
            1141     175.729E-06
            1142     175.729E-06
            1143     175.251E-06
            1144     175.409E-06
            1145     175.410E-06
            1146     174.941E-06
            1147     175.095E-06
            1148     175.096E-06
            1149     174.635E-06
            1150     174.787E-06
            1151     174.788E-06
            1152     174.336E-06
            1153     174.485E-06
            1154     174.486E-06
            1155     174.042E-06
            1156     174.188E-06
            1157     174.189E-06
            1158     173.753E-06
            1159     173.896E-06
            1160     173.897E-06
            1161     173.469E-06
            1162     173.610E-06
            1163     173.611E-06
            1164     173.190E-06
            1165     173.329E-06
            1166     173.329E-06
            1167     172.916E-06
            1168     173.052E-06
            1169     173.053E-06
            1170     172.648E-06
            1171     172.781E-06
            1172     172.782E-06
            1173     172.384E-06
            1174     172.515E-06
            1175     172.516E-06
            1176     172.125E-06
            1177     172.254E-06
            1178     172.254E-06
            1179     171.871E-06
            1180     171.997E-06
            1181     171.998E-06
            1182     171.622E-06
            1183     171.746E-06
            1184     171.746E-06
            1185     171.377E-06
            1186     171.499E-06
            1187     171.499E-06
            1188     171.137E-06
            1189     171.257E-06
            1190     171.257E-06
            1191     170.902E-06
            1192     171.019E-06
            1193     171.020E-06
            1194     176.222E-06
            1195     176.389E-06
            1196     176.390E-06
            1197     176.558E-06
            1198     175.893E-06
            1199     176.056E-06
            1200     176.058E-06
            1201     175.570E-06
            1202     175.730E-06
            1203     175.732E-06
            1204     175.253E-06
            1205     175.411E-06
            1206     175.412E-06
            1207     174.943E-06
            1208     175.097E-06
            1209     175.099E-06
            1210     174.638E-06
            1211     174.789E-06
            1212     174.791E-06
            1213     174.338E-06
            1214     174.487E-06
            1215     174.488E-06
            1216     174.044E-06
            1217     174.190E-06
            1218     174.191E-06
            1219     173.754E-06
            1220     173.898E-06
            1221     173.899E-06
            1222     173.471E-06
            1223     173.612E-06
            1224     173.613E-06
            1225     173.192E-06
            1226     173.330E-06
            1227     173.331E-06
            1228     172.918E-06
            1229     173.054E-06
            1230     173.055E-06
            1231     172.649E-06
            1232     172.783E-06
            1233     172.784E-06
            1234     172.385E-06
            1235     172.516E-06
            1236     172.517E-06
            1237     172.126E-06
            1238     172.255E-06
            1239     172.256E-06
            1240     171.872E-06
            1241     171.999E-06
            1242     171.999E-06
            1243     171.623E-06
            1244     171.747E-06
            1245     171.747E-06
            1246     171.378E-06
            1247     171.500E-06
            1248     171.501E-06
            1249     171.139E-06
            1250     171.258E-06
            1251     171.258E-06
            1252     170.903E-06
            1253     171.020E-06
            1254     171.021E-06
            1255     176.225E-06
            1256     176.392E-06
            1257     176.393E-06
            1258     176.560E-06
            1259     175.896E-06
            1260     176.059E-06
            1261     176.061E-06
            1262     175.573E-06
            1263     175.733E-06
            1264     175.735E-06
            1265     175.256E-06
            1266     175.414E-06
            1267     175.416E-06
            1268     174.946E-06
            1269     175.100E-06
            1270     175.102E-06
            1271     174.640E-06
            1272     174.792E-06
            1273     174.794E-06
            1274     174.341E-06
            1275     174.490E-06
            1276     174.491E-06
            1277     174.046E-06
            1278     174.193E-06
            1279     174.194E-06
            1280     173.757E-06
            1281     173.901E-06
            1282     173.902E-06
            1283     173.473E-06
            1284     173.614E-06
            1285     173.615E-06
            1286     173.194E-06
            1287     173.332E-06
            1288     173.333E-06
            1289     172.920E-06
            1290     173.056E-06
            1291     173.057E-06
            1292     172.651E-06
            1293     172.784E-06
            1294     172.785E-06
            1295     172.387E-06
            1296     172.518E-06
            1297     172.519E-06
            1298     172.128E-06
            1299     172.256E-06
            1300     172.257E-06
            1301     171.874E-06
            1302     172.000E-06
            1303     172.001E-06
            1304     171.624E-06
            1305     171.748E-06
            1306     171.749E-06
            1307     171.380E-06
            1308     171.501E-06
            1309     171.502E-06
            1310     171.140E-06
            1311     171.259E-06
            1312     171.260E-06
            1313     170.905E-06
            1314     171.022E-06
            1315     171.022E-06
            1316     176.228E-06
            1317     176.395E-06
            1318     176.398E-06
            1319     176.564E-06
            1320     175.899E-06
            1321     176.063E-06
            1322     176.065E-06
            1323     175.577E-06
            1324     175.737E-06
            1325     175.740E-06
            1326     175.260E-06
            1327     175.418E-06
            1328     175.420E-06
            1329     174.949E-06
            1330     175.104E-06
            1331     175.106E-06
            1332     174.644E-06
            1333     174.796E-06
            1334     174.798E-06
            1335     174.344E-06
            1336     174.493E-06
            1337     174.495E-06
            1338     174.049E-06
            1339     174.196E-06
            1340     174.198E-06
            1341     173.760E-06
            1342     173.904E-06
            1343     173.905E-06
            1344     173.475E-06
            1345     173.617E-06
            1346     173.618E-06
            1347     173.196E-06
            1348     173.335E-06
            1349     173.336E-06
            1350     172.922E-06
            1351     173.058E-06
            1352     173.059E-06
            1353     172.652E-06
            1354     172.786E-06
            1355     172.787E-06
            1356     172.388E-06
            1357     172.520E-06
            1358     172.520E-06
            1359     172.129E-06
            1360     172.258E-06
            1361     172.259E-06
            1362     171.875E-06
            1363     172.001E-06
            1364     172.002E-06
            1365     171.626E-06
            1366     171.750E-06
            1367     171.750E-06
            1368     171.381E-06
            1369     171.502E-06
            1370     171.503E-06
            1371     171.141E-06
            1372     171.260E-06
            1373     171.261E-06
            1374     170.906E-06
            1375     171.023E-06
            1376     171.023E-06
            1377     176.234E-06
            1378     176.400E-06
            1379     176.404E-06
            1380     176.570E-06
            1381     175.905E-06
            1382     176.068E-06
            1383     176.071E-06
            1384     175.582E-06
            1385     175.742E-06
            1386     175.746E-06
            1387     175.266E-06
            1388     175.423E-06
            1389     175.426E-06
            1390     174.954E-06
            1391     175.109E-06
            1392     175.112E-06
            1393     174.649E-06
            1394     174.801E-06
            1395     174.803E-06
            1396     174.348E-06
            1397     174.498E-06
            1398     174.500E-06
            1399     174.053E-06
            1400     174.200E-06
            1401     174.201E-06
            1402     173.763E-06
            1403     173.907E-06
            1404     173.908E-06
            1405     173.478E-06
            1406     173.619E-06
            1407     173.621E-06
            1408     173.198E-06
            1409     173.337E-06
            1410     173.338E-06
            1411     172.924E-06
            1412     173.060E-06
            1413     173.061E-06
            1414     172.654E-06
            1415     172.788E-06
            1416     172.789E-06
            1417     172.390E-06
            1418     172.521E-06
            1419     172.522E-06
            1420     172.131E-06
            1421     172.260E-06
            1422     172.260E-06
            1423     171.876E-06
            1424     172.003E-06
            1425     172.003E-06
            1426     171.627E-06
            1427     171.751E-06
            1428     171.751E-06
            1429     171.382E-06
            1430     171.504E-06
            1431     171.504E-06
            1432     171.142E-06
            1433     171.261E-06
            1434     171.262E-06
            1435     170.907E-06
            1436     171.024E-06
            1437     171.024E-06
            1438     176.240E-06
            1439     176.407E-06
            1440     176.412E-06
            1441     176.577E-06
            1442     175.912E-06
            1443     176.075E-06
            1444     176.080E-06
            1445     175.589E-06
            1446     175.750E-06
            1447     175.754E-06
            1448     175.272E-06
            1449     175.430E-06
            1450     175.434E-06
            1451     174.960E-06
            1452     175.116E-06
            1453     175.119E-06
            1454     174.654E-06
            1455     174.806E-06
            1456     174.809E-06
            1457     174.352E-06
            1458     174.502E-06
            1459     174.505E-06
            1460     174.056E-06
            1461     174.204E-06
            1462     174.205E-06
            1463     173.766E-06
            1464     173.910E-06
            1465     173.912E-06
            1466     173.480E-06
            1467     173.622E-06
            1468     173.623E-06
            1469     173.200E-06
            1470     173.340E-06
            1471     173.341E-06
            1472     172.926E-06
            1473     173.062E-06
            1474     173.063E-06
            1475     172.656E-06
            1476     172.790E-06
            1477     172.791E-06
            1478     172.392E-06
            1479     172.523E-06
            1480     172.524E-06
            1481     172.132E-06
            1482     172.261E-06
            1483     172.262E-06
            1484     171.878E-06
            1485     172.004E-06
            1486     172.005E-06
            1487     171.628E-06
            1488     171.752E-06
            1489     171.753E-06
            1490     171.383E-06
            1491     171.505E-06
            1492     171.505E-06
            1493     171.143E-06
            1494     171.263E-06
            1495     171.263E-06
            1496     170.908E-06
            1497     171.025E-06
            1498     171.025E-06
            1499     176.251E-06
            1500     176.417E-06
            1501     176.425E-06
            1502     176.587E-06
            1503     175.922E-06
            1504     176.085E-06
            1505     176.093E-06
            1506     175.599E-06
            1507     175.760E-06
            1508     175.766E-06
            1509     175.281E-06
            1510     175.439E-06
            1511     175.444E-06
            1512     174.967E-06
            1513     175.123E-06
            1514     175.127E-06
            1515     174.659E-06
            1516     174.812E-06
            1517     174.815E-06
            1518     174.357E-06
            1519     174.507E-06
            1520     174.509E-06
            1521     174.060E-06
            1522     174.208E-06
            1523     174.209E-06
            1524     173.769E-06
            1525     173.913E-06
            1526     173.915E-06
            1527     173.483E-06
            1528     173.625E-06
            1529     173.626E-06
            1530     173.202E-06
            1531     173.342E-06
            1532     173.343E-06
            1533     172.927E-06
            1534     173.064E-06
            1535     173.065E-06
            1536     172.658E-06
            1537     172.792E-06
            1538     172.792E-06
            1539     172.393E-06
            1540     172.524E-06
            1541     172.525E-06
            1542     172.133E-06
            1543     172.262E-06
            1544     172.263E-06
            1545     171.879E-06
            1546     172.005E-06
            1547     172.006E-06
            1548     171.629E-06
            1549     171.753E-06
            1550     171.754E-06
            1551     171.384E-06
            1552     171.506E-06
            1553     171.506E-06
            1554     171.144E-06
            1555     171.264E-06
            1556     171.264E-06
            1557     170.909E-06
            1558     171.026E-06
            1559     171.026E-06
            1560     176.268E-06
            1561     176.434E-06
            1562     176.450E-06
            1563     176.605E-06
            1564     175.938E-06
            1565     176.103E-06
            1566     176.114E-06
            1567     175.611E-06
            1568     175.774E-06
            1569     175.782E-06
            1570     175.290E-06
            1571     175.450E-06
            1572     175.455E-06
            1573     174.974E-06
            1574     175.131E-06
            1575     175.135E-06
            1576     174.664E-06
            1577     174.818E-06
            1578     174.821E-06
            1579     174.361E-06
            1580     174.512E-06
            1581     174.513E-06
            1582     174.063E-06
            1583     174.211E-06
            1584     174.212E-06
            1585     173.771E-06
            1586     173.916E-06
            1587     173.917E-06
            1588     173.485E-06
            1589     173.627E-06
            1590     173.628E-06
            1591     173.204E-06
            1592     173.344E-06
            1593     173.344E-06
            1594     172.929E-06
            1595     173.066E-06
            1596     173.066E-06
            1597     172.659E-06
            1598     172.793E-06
            1599     172.793E-06
            1600     172.394E-06
            1601     172.526E-06
            1602     172.526E-06
            1603     172.134E-06
            1604     172.263E-06
            1605     172.264E-06
            1606     171.880E-06
            1607     172.006E-06
            1608     172.007E-06
            1609     171.630E-06
            1610     171.754E-06
            1611     171.755E-06
            1612     171.385E-06
            1613     171.507E-06
            1614     171.507E-06
            1615     171.145E-06
            1616     171.265E-06
            1617     171.265E-06
            1618     170.910E-06
            1619     171.027E-06
            1620     171.027E-06
            1621     176.300E-06
            1622     176.475E-06
            1623     176.507E-06
            1624     176.641E-06
            1625     175.958E-06
            1626     176.130E-06
            1627     176.139E-06
            1628     175.624E-06
            1629     175.790E-06
            1630     175.795E-06
            1631     175.298E-06
            1632     175.460E-06
            1633     175.463E-06
            1634     174.980E-06
            1635     175.138E-06
            1636     175.139E-06
            1637     174.668E-06
            1638     174.823E-06
            1639     174.824E-06
            1640     174.364E-06
            1641     174.515E-06
            1642     174.516E-06
            1643     174.065E-06
            1644     174.213E-06
            1645     174.214E-06
            1646     173.773E-06
            1647     173.918E-06
            1648     173.918E-06
            1649     173.486E-06
            1650     173.629E-06
            1651     173.629E-06
            1652     173.205E-06
            1653     173.345E-06
            1654     173.345E-06
            1655     172.930E-06
            1656     173.067E-06
            1657     173.067E-06
            1658     172.660E-06
            1659     172.794E-06
            1660     172.794E-06
            1661     172.395E-06
            1662     172.526E-06
            1663     172.527E-06
            1664     172.135E-06
            1665     172.264E-06
            1666     172.264E-06
            1667     171.881E-06
            1668     172.007E-06
            1669     172.007E-06
            1670     171.631E-06
            1671     171.755E-06
            1672     171.755E-06
            1673     171.386E-06
            1674     171.508E-06
            1675     171.508E-06
            1676     171.146E-06
            1677     171.265E-06
            1678     171.266E-06
            1679     170.911E-06
            1680     171.028E-06
            1681     171.028E-06


  Minimum            170.897E-06
         At Node              42

  Maximum            176.724E-06
         At Node             421

           Total     291.762E-03


********************************************************************************
Field Output Report, written Wed Mar 07 18:39:06 2018

Source 1
---------

   ODB: C:/Users/Wagner/Desktop/Projeto FEM/FEM-matlab/Benchmarks/Vaso de Pressao/Job-1.odb
   Step: Step-1
   Frame: Increment      1: Step Time =    1.000

Loc 1 : Nodal values from source 1

Output sorted by column "Node Label".

Field Output reported at nodes for part: PART-1-1

            Node            U.U1            U.U2
           Label          @Loc 1          @Loc 1
-------------------------------------------------
               1     176.658E-06    -606.309E-39
               2     176.275E-06     148.378E-39
               3     175.928E-06     92.5028E-39
               4     175.596E-06     70.0884E-39
               5     175.272E-06     59.2800E-39
               6     174.956E-06     50.1254E-39
               7     174.646E-06     41.5968E-39
               8     174.343E-06     33.6381E-39
               9     174.045E-06     26.2732E-39
              10     173.754E-06     19.5173E-39
              11     173.468E-06     13.3634E-39
              12     173.188E-06     7.78064E-39
              13     172.913E-06     2.71852E-39
              14     172.644E-06    -1.88649E-39
              15     172.379E-06    -6.10308E-39
              16     172.120E-06    -9.99597E-39
              17     171.866E-06    -13.6152E-39
              18     171.616E-06    -16.9830E-39
              19     171.372E-06    -20.0835E-39
              20     171.132E-06    -22.9132E-39
              21     170.897E-06    -11.3120E-39
              22     176.592E-06    -241.640E-09
              23     176.258E-06    -228.332E-09
              24     175.923E-06    -228.077E-09
              25     175.593E-06    -229.079E-09
              26     175.271E-06    -229.926E-09
              27     174.955E-06    -230.584E-09
              28     174.645E-06    -231.109E-09
              29     174.342E-06    -231.539E-09
              30     174.045E-06    -231.899E-09
              31     173.754E-06    -232.201E-09
              32     173.468E-06    -232.458E-09
              33     173.188E-06    -232.677E-09
              34     172.913E-06    -232.864E-09
              35     172.644E-06    -233.025E-09
              36     172.379E-06    -233.165E-09
              37     172.120E-06    -233.289E-09
              38     171.866E-06    -233.400E-09
              39     171.616E-06    -233.500E-09
              40     171.372E-06    -233.590E-09
              41     171.132E-06    -233.665E-09
              42     170.897E-06    -233.691E-09
              43     176.577E-06    -472.627E-09
              44     176.242E-06    -463.574E-09
              45     175.913E-06    -460.275E-09
              46     175.587E-06    -460.157E-09
              47     175.267E-06    -460.891E-09
              48     174.952E-06    -461.765E-09
              49     174.644E-06    -462.592E-09
              50     174.341E-06    -463.331E-09
              51     174.044E-06    -463.977E-09
              52     173.753E-06    -464.537E-09
              53     173.468E-06    -465.019E-09
              54     173.188E-06    -465.434E-09
              55     172.913E-06    -465.791E-09
              56     172.643E-06    -466.101E-09
              57     172.379E-06    -466.372E-09
              58     172.120E-06    -466.612E-09
              59     171.866E-06    -466.827E-09
              60     171.616E-06    -467.021E-09
              61     171.372E-06    -467.194E-09
              62     171.132E-06    -467.336E-09
              63     170.897E-06    -467.432E-09
              64     176.568E-06    -703.691E-09
              65     176.233E-06    -697.501E-09
              66     175.905E-06    -693.911E-09
              67     175.581E-06    -692.796E-09
              68     175.262E-06    -692.996E-09
              69     174.949E-06    -693.725E-09
              70     174.641E-06    -694.612E-09
              71     174.339E-06    -695.502E-09
              72     174.043E-06    -696.331E-09
              73     173.752E-06    -697.077E-09
              74     173.467E-06    -697.734E-09
              75     173.187E-06    -698.308E-09
              76     172.913E-06    -698.808E-09
              77     172.643E-06    -699.244E-09
              78     172.379E-06    -699.627E-09
              79     172.120E-06    -699.969E-09
              80     171.866E-06    -700.277E-09
              81     171.616E-06    -700.557E-09
              82     171.372E-06    -700.809E-09
              83     171.132E-06    -701.026E-09
              84     170.897E-06    -701.196E-09
              85     176.563E-06    -934.783E-09
              86     176.228E-06    -930.417E-09
              87     175.899E-06    -927.398E-09
              88     175.576E-06    -926.012E-09
              89     175.258E-06    -925.835E-09
              90     174.946E-06    -926.341E-09
              91     174.639E-06    -927.163E-09
              92     174.338E-06    -928.090E-09
              93     174.042E-06    -929.010E-09
              94     173.751E-06    -929.869E-09
              95     173.466E-06    -930.646E-09
              96     173.187E-06    -931.334E-09
              97     172.912E-06    -931.941E-09
              98     172.643E-06    -932.474E-09
              99     172.379E-06    -932.948E-09
             100     172.120E-06    -933.372E-09
             101     171.866E-06    -933.759E-09
             102     171.617E-06    -934.115E-09
             103     171.372E-06    -934.443E-09
             104     171.132E-06    -934.737E-09
             105     170.897E-06    -934.986E-09
             106     176.559E-06    -1.16585E-06
             107     176.224E-06    -1.16278E-06
             108     175.895E-06    -1.16049E-06
             109     175.572E-06    -1.15927E-06
             110     175.255E-06    -1.15900E-06
             111     174.943E-06    -1.15939E-06
             112     174.637E-06    -1.16014E-06
             113     174.336E-06    -1.16105E-06
             114     174.041E-06    -1.16201E-06
             115     173.751E-06    -1.16292E-06
             116     173.466E-06    -1.16377E-06
             117     173.186E-06    -1.16453E-06
             118     172.912E-06    -1.16521E-06
             119     172.643E-06    -1.16581E-06
             120     172.379E-06    -1.16634E-06
             121     172.120E-06    -1.16683E-06
             122     171.866E-06    -1.16728E-06
             123     171.617E-06    -1.16770E-06
             124     171.372E-06    -1.16810E-06
             125     171.133E-06    -1.16847E-06
             126     170.898E-06    -1.16880E-06
             127     176.556E-06    -1.39688E-06
             128     176.221E-06    -1.39480E-06
             129     175.892E-06    -1.39324E-06
             130     175.569E-06    -1.39241E-06
             131     175.252E-06    -1.39227E-06
             132     174.941E-06    -1.39267E-06
             133     174.635E-06    -1.39340E-06
             134     174.335E-06    -1.39432E-06
             135     174.040E-06    -1.39528E-06
             136     173.750E-06    -1.39622E-06
             137     173.465E-06    -1.39710E-06
             138     173.186E-06    -1.39789E-06
             139     172.912E-06    -1.39860E-06
             140     172.643E-06    -1.39924E-06
             141     172.379E-06    -1.39981E-06
             142     172.120E-06    -1.40034E-06
             143     171.866E-06    -1.40084E-06
             144     171.617E-06    -1.40131E-06
             145     171.373E-06    -1.40177E-06
             146     171.133E-06    -1.40222E-06
             147     170.898E-06    -1.40265E-06
             148     176.554E-06    -1.62787E-06
             149     176.219E-06    -1.62661E-06
             150     175.890E-06    -1.62574E-06
             151     175.567E-06    -1.62538E-06
             152     175.250E-06    -1.62552E-06
             153     174.939E-06    -1.62606E-06
             154     174.634E-06    -1.62687E-06
             155     174.334E-06    -1.62781E-06
             156     174.039E-06    -1.62878E-06
             157     173.749E-06    -1.62973E-06
             158     173.465E-06    -1.63061E-06
             159     173.186E-06    -1.63141E-06
             160     172.912E-06    -1.63213E-06
             161     172.643E-06    -1.63277E-06
             162     172.380E-06    -1.63336E-06
             163     172.121E-06    -1.63390E-06
             164     171.867E-06    -1.63442E-06
             165     171.618E-06    -1.63494E-06
             166     171.373E-06    -1.63545E-06
             167     171.133E-06    -1.63597E-06
             168     170.898E-06    -1.63651E-06
             169     176.553E-06    -1.85878E-06
             170     176.218E-06    -1.85826E-06
             171     175.889E-06    -1.85806E-06
             172     175.566E-06    -1.85823E-06
             173     175.249E-06    -1.85874E-06
             174     174.938E-06    -1.85952E-06
             175     174.633E-06    -1.86046E-06
             176     174.333E-06    -1.86147E-06
             177     174.038E-06    -1.86247E-06
             178     173.749E-06    -1.86342E-06
             179     173.465E-06    -1.86429E-06
             180     173.186E-06    -1.86506E-06
             181     172.913E-06    -1.86576E-06
             182     172.644E-06    -1.86639E-06
             183     172.380E-06    -1.86696E-06
             184     172.121E-06    -1.86751E-06
             185     171.867E-06    -1.86804E-06
             186     171.618E-06    -1.86858E-06
             187     171.374E-06    -1.86913E-06
             188     171.134E-06    -1.86973E-06
             189     170.899E-06    -1.87037E-06
             190     176.553E-06    -2.08961E-06
             191     176.218E-06    -2.08978E-06
             192     175.889E-06    -2.09024E-06
             193     175.566E-06    -2.09098E-06
             194     175.249E-06    -2.09194E-06
             195     174.938E-06    -2.09302E-06
             196     174.633E-06    -2.09415E-06
             197     174.333E-06    -2.09526E-06
             198     174.039E-06    -2.09630E-06
             199     173.750E-06    -2.09724E-06
             200     173.466E-06    -2.09808E-06
             201     173.187E-06    -2.09882E-06
             202     172.913E-06    -2.09948E-06
             203     172.645E-06    -2.10007E-06
             204     172.381E-06    -2.10061E-06
             205     172.122E-06    -2.10114E-06
             206     171.868E-06    -2.10166E-06
             207     171.619E-06    -2.10221E-06
             208     171.375E-06    -2.10281E-06
             209     171.135E-06    -2.10347E-06
             210     170.900E-06    -2.10421E-06
             211     176.553E-06    -2.32033E-06
             212     176.218E-06    -2.32118E-06
             213     175.889E-06    -2.32233E-06
             214     175.566E-06    -2.32369E-06
             215     175.249E-06    -2.32514E-06
             216     174.938E-06    -2.32658E-06
             217     174.633E-06    -2.32793E-06
             218     174.334E-06    -2.32916E-06
             219     174.039E-06    -2.33024E-06
             220     173.750E-06    -2.33117E-06
             221     173.466E-06    -2.33197E-06
             222     173.188E-06    -2.33265E-06
             223     172.914E-06    -2.33325E-06
             224     172.645E-06    -2.33378E-06
             225     172.382E-06    -2.33428E-06
             226     172.123E-06    -2.33478E-06
             227     171.869E-06    -2.33529E-06
             228     171.620E-06    -2.33584E-06
             229     171.375E-06    -2.33646E-06
             230     171.136E-06    -2.33717E-06
             231     170.901E-06    -2.33801E-06
             232     176.554E-06    -2.55089E-06
             233     176.219E-06    -2.55245E-06
             234     175.890E-06    -2.55435E-06
             235     175.567E-06    -2.55639E-06
             236     175.250E-06    -2.55838E-06
             237     174.939E-06    -2.56021E-06
             238     174.634E-06    -2.56181E-06
             239     174.335E-06    -2.56316E-06
             240     174.040E-06    -2.56427E-06
             241     173.751E-06    -2.56517E-06
             242     173.468E-06    -2.56591E-06
             243     173.189E-06    -2.56652E-06
             244     172.915E-06    -2.56704E-06
             245     172.647E-06    -2.56751E-06
             246     172.383E-06    -2.56795E-06
             247     172.124E-06    -2.56840E-06
             248     171.870E-06    -2.56889E-06
             249     171.621E-06    -2.56943E-06
             250     171.376E-06    -2.57007E-06
             251     171.137E-06    -2.57083E-06
             252     170.902E-06    -2.57174E-06
             253     176.556E-06    -2.78124E-06
             254     176.221E-06    -2.78359E-06
             255     175.891E-06    -2.78634E-06
             256     175.569E-06    -2.78913E-06
             257     175.252E-06    -2.79173E-06
             258     174.941E-06    -2.79396E-06
             259     174.636E-06    -2.79579E-06
             260     174.336E-06    -2.79724E-06
             261     174.042E-06    -2.79835E-06
             262     173.753E-06    -2.79920E-06
             263     173.469E-06    -2.79986E-06
             264     173.191E-06    -2.80038E-06
             265     172.917E-06    -2.80082E-06
             266     172.648E-06    -2.80121E-06
             267     172.384E-06    -2.80159E-06
             268     172.125E-06    -2.80199E-06
             269     171.871E-06    -2.80245E-06
             270     171.622E-06    -2.80298E-06
             271     171.378E-06    -2.80363E-06
             272     171.138E-06    -2.80441E-06
             273     170.903E-06    -2.80540E-06
             274     176.559E-06    -3.01130E-06
             275     176.223E-06    -3.01459E-06
             276     175.894E-06    -3.01833E-06
             277     175.571E-06    -3.02200E-06
             278     175.254E-06    -3.02523E-06
             279     174.944E-06    -3.02786E-06
             280     174.639E-06    -3.02988E-06
             281     174.339E-06    -3.03137E-06
             282     174.045E-06    -3.03245E-06
             283     173.755E-06    -3.03322E-06
             284     173.471E-06    -3.03377E-06
             285     173.192E-06    -3.03419E-06
             286     172.918E-06    -3.03453E-06
             287     172.650E-06    -3.03485E-06
             288     172.386E-06    -3.03517E-06
             289     172.127E-06    -3.03553E-06
             290     171.873E-06    -3.03595E-06
             291     171.623E-06    -3.03647E-06
             292     171.379E-06    -3.03712E-06
             293     171.139E-06    -3.03792E-06
             294     170.904E-06    -3.03894E-06
             295     176.562E-06    -3.24095E-06
             296     176.226E-06    -3.24542E-06
             297     175.897E-06    -3.25040E-06
             298     175.574E-06    -3.25508E-06
             299     175.258E-06    -3.25895E-06
             300     174.947E-06    -3.26191E-06
             301     174.642E-06    -3.26404E-06
             302     174.342E-06    -3.26551E-06
             303     174.047E-06    -3.26650E-06
             304     173.758E-06    -3.26715E-06
             305     173.474E-06    -3.26759E-06
             306     173.194E-06    -3.26791E-06
             307     172.920E-06    -3.26816E-06
             308     172.651E-06    -3.26840E-06
             309     172.387E-06    -3.26866E-06
             310     172.128E-06    -3.26898E-06
             311     171.874E-06    -3.26938E-06
             312     171.625E-06    -3.26989E-06
             313     171.380E-06    -3.27053E-06
             314     171.140E-06    -3.27134E-06
             315     170.905E-06    -3.27238E-06
             316     176.566E-06    -3.47000E-06
             317     176.230E-06    -3.47607E-06
             318     175.901E-06    -3.48267E-06
             319     175.579E-06    -3.48848E-06
             320     175.262E-06    -3.49295E-06
             321     174.952E-06    -3.49610E-06
             322     174.646E-06    -3.49821E-06
             323     174.346E-06    -3.49956E-06
             324     174.051E-06    -3.50041E-06
             325     173.761E-06    -3.50093E-06
             326     173.476E-06    -3.50125E-06
             327     173.197E-06    -3.50147E-06
             328     172.922E-06    -3.50164E-06
             329     172.653E-06    -3.50182E-06
             330     172.389E-06    -3.50204E-06
             331     172.130E-06    -3.50234E-06
             332     171.875E-06    -3.50273E-06
             333     171.626E-06    -3.50323E-06
             334     171.381E-06    -3.50387E-06
             335     171.141E-06    -3.50467E-06
             336     170.906E-06    -3.50569E-06
             337     176.573E-06    -3.69814E-06
             338     176.236E-06    -3.70657E-06
             339     175.907E-06    -3.71534E-06
             340     175.585E-06    -3.72235E-06
             341     175.268E-06    -3.72719E-06
             342     174.957E-06    -3.73031E-06
             343     174.651E-06    -3.73224E-06
             344     174.350E-06    -3.73341E-06
             345     174.054E-06    -3.73409E-06
             346     173.764E-06    -3.73448E-06
             347     173.479E-06    -3.73470E-06
             348     173.199E-06    -3.73484E-06
             349     172.924E-06    -3.73496E-06
             350     172.655E-06    -3.73510E-06
             351     172.390E-06    -3.73531E-06
             352     172.131E-06    -3.73559E-06
             353     171.877E-06    -3.73598E-06
             354     171.627E-06    -3.73648E-06
             355     171.382E-06    -3.73712E-06
             356     171.143E-06    -3.73791E-06
             357     170.907E-06    -3.73889E-06
             358     176.581E-06    -3.92472E-06
             359     176.245E-06    -3.93712E-06
             360     175.916E-06    -3.94877E-06
             361     175.594E-06    -3.95668E-06
             362     175.276E-06    -3.96146E-06
             363     174.963E-06    -3.96427E-06
             364     174.656E-06    -3.96591E-06
             365     174.354E-06    -3.96687E-06
             366     174.058E-06    -3.96741E-06
             367     173.767E-06    -3.96770E-06
             368     173.481E-06    -3.96787E-06
             369     173.201E-06    -3.96798E-06
             370     172.926E-06    -3.96809E-06
             371     172.656E-06    -3.96823E-06
             372     172.392E-06    -3.96844E-06
             373     172.132E-06    -3.96873E-06
             374     171.878E-06    -3.96913E-06
             375     171.628E-06    -3.96966E-06
             376     171.384E-06    -3.97030E-06
             377     171.144E-06    -3.97108E-06
             378     170.908E-06    -3.97200E-06
             379     176.594E-06    -4.14816E-06
             380     176.258E-06    -4.16850E-06
             381     175.929E-06    -4.18325E-06
             382     175.605E-06    -4.19104E-06
             383     175.285E-06    -4.19519E-06
             384     174.970E-06    -4.19755E-06
             385     174.662E-06    -4.19894E-06
             386     174.359E-06    -4.19978E-06
             387     174.061E-06    -4.20027E-06
             388     173.770E-06    -4.20057E-06
             389     173.484E-06    -4.20076E-06
             390     173.203E-06    -4.20089E-06
             391     172.928E-06    -4.20103E-06
             392     172.658E-06    -4.20121E-06
             393     172.393E-06    -4.20145E-06
             394     172.134E-06    -4.20178E-06
             395     171.879E-06    -4.20221E-06
             396     171.629E-06    -4.20276E-06
             397     171.385E-06    -4.20342E-06
             398     171.145E-06    -4.20418E-06
             399     170.909E-06    -4.20503E-06
             400     176.618E-06    -4.36389E-06
             401     176.282E-06    -4.40260E-06
             402     175.948E-06    -4.41753E-06
             403     175.618E-06    -4.42389E-06
             404     175.294E-06    -4.42745E-06
             405     174.977E-06    -4.42968E-06
             406     174.666E-06    -4.43113E-06
             407     174.362E-06    -4.43207E-06
             408     174.064E-06    -4.43268E-06
             409     173.772E-06    -4.43309E-06
             410     173.485E-06    -4.43338E-06
             411     173.204E-06    -4.43361E-06
             412     172.929E-06    -4.43383E-06
             413     172.659E-06    -4.43407E-06
             414     172.394E-06    -4.43437E-06
             415     172.135E-06    -4.43475E-06
             416     171.880E-06    -4.43522E-06
             417     171.630E-06    -4.43580E-06
             418     171.385E-06    -4.43649E-06
             419     171.145E-06    -4.43726E-06
             420     170.910E-06    -4.43803E-06
             421     176.724E-06    -4.57198E-06
             422     176.323E-06    -4.63263E-06
             423     175.966E-06    -4.64628E-06
             424     175.627E-06    -4.65345E-06
             425     175.300E-06    -4.65784E-06
             426     174.981E-06    -4.66068E-06
             427     174.669E-06    -4.66258E-06
             428     174.364E-06    -4.66387E-06
             429     174.065E-06    -4.66475E-06
             430     173.773E-06    -4.66537E-06
             431     173.486E-06    -4.66584E-06
             432     173.205E-06    -4.66621E-06
             433     172.930E-06    -4.66654E-06
             434     172.660E-06    -4.66688E-06
             435     172.395E-06    -4.66726E-06
             436     172.135E-06    -4.66770E-06
             437     171.881E-06    -4.66822E-06
             438     171.631E-06    -4.66883E-06
             439     171.386E-06    -4.66954E-06
             440     171.146E-06    -4.67031E-06
             441     170.911E-06    -4.67101E-06
             442     176.458E-06    -129.728E-39
             443     176.268E-06    -111.525E-09
             444     176.437E-06    -111.397E-09
             445     176.425E-06    -231.173E-09
             446     176.607E-06    -129.363E-09
             447     176.099E-06     71.9688E-39
             448     175.927E-06    -113.526E-09
             449     176.096E-06    -112.498E-09
             450     176.090E-06    -227.657E-09
             451     175.761E-06     66.5100E-39
             452     175.596E-06    -114.419E-09
             453     175.760E-06    -113.925E-09
             454     175.757E-06    -228.764E-09
             455     175.433E-06     58.7221E-39
             456     175.272E-06    -114.924E-09
             457     175.433E-06    -114.606E-09
             458     175.431E-06    -229.674E-09
             459     175.113E-06     50.4549E-39
             460     174.956E-06    -115.279E-09
             461     175.113E-06    -115.043E-09
             462     175.112E-06    -230.378E-09
             463     174.800E-06     42.1978E-39
             464     174.646E-06    -115.552E-09
             465     174.800E-06    -115.364E-09
             466     174.799E-06    -230.940E-09
             467     174.494E-06     34.2659E-39
             468     174.343E-06    -115.773E-09
             469     174.494E-06    -115.617E-09
             470     174.493E-06    -231.400E-09
             471     174.193E-06     26.8104E-39
             472     174.046E-06    -115.955E-09
             473     174.193E-06    -115.822E-09
             474     174.193E-06    -231.785E-09
             475     173.899E-06     19.9059E-39
             476     173.754E-06    -116.107E-09
             477     173.899E-06    -115.994E-09
             478     173.899E-06    -232.108E-09
             479     173.610E-06     13.5792E-39
             480     173.468E-06    -116.236E-09
             481     173.610E-06    -116.138E-09
             482     173.610E-06    -232.383E-09
             483     173.327E-06     7.82128E-39
             484     173.188E-06    -116.346E-09
             485     173.328E-06    -116.260E-09
             486     173.327E-06    -232.616E-09
             487     173.050E-06     2.59583E-39
             488     172.913E-06    -116.439E-09
             489     173.050E-06    -116.363E-09
             490     173.050E-06    -232.816E-09
             491     172.778E-06    -2.15236E-39
             492     172.644E-06    -116.520E-09
             493     172.778E-06    -116.452E-09
             494     172.778E-06    -232.987E-09
             495     172.511E-06    -6.48877E-39
             496     172.379E-06    -116.590E-09
             497     172.511E-06    -116.529E-09
             498     172.511E-06    -233.135E-09
             499     172.249E-06    -10.4800E-39
             500     172.120E-06    -116.652E-09
             501     172.249E-06    -116.596E-09
             502     172.249E-06    -233.266E-09
             503     171.992E-06    -14.1836E-39
             504     171.866E-06    -116.707E-09
             505     171.992E-06    -116.656E-09
             506     171.992E-06    -233.381E-09
             507     171.740E-06    -17.6366E-39
             508     171.617E-06    -116.758E-09
             509     171.741E-06    -116.710E-09
             510     171.740E-06    -233.486E-09
             511     171.494E-06    -20.8426E-39
             512     171.372E-06    -116.803E-09
             513     171.494E-06    -116.759E-09
             514     171.494E-06    -233.580E-09
             515     171.251E-06    -23.7521E-39
             516     171.132E-06    -116.842E-09
             517     171.252E-06    -116.803E-09
             518     171.251E-06    -233.662E-09
             519     171.014E-06    -25.6291E-39
             520     170.897E-06    -116.835E-09
             521     171.014E-06    -116.841E-09
             522     171.014E-06    -233.722E-09
             523     176.249E-06    -346.066E-09
             524     176.415E-06    -349.579E-09
             525     176.409E-06    -467.259E-09
             526     176.584E-06    -357.444E-09
             527     175.918E-06    -343.806E-09
             528     176.083E-06    -344.164E-09
             529     176.077E-06    -461.181E-09
             530     175.591E-06    -344.410E-09
             531     175.753E-06    -344.003E-09
             532     175.750E-06    -460.067E-09
             533     175.269E-06    -345.307E-09
             534     175.429E-06    -344.831E-09
             535     175.427E-06    -460.583E-09
             536     174.954E-06    -346.125E-09
             537     175.111E-06    -345.693E-09
             538     175.109E-06    -461.427E-09
             539     174.645E-06    -346.827E-09
             540     174.799E-06    -346.453E-09
             541     174.797E-06    -462.275E-09
             542     174.342E-06    -347.427E-09
             543     174.493E-06    -347.104E-09
             544     174.492E-06    -463.050E-09
             545     174.045E-06    -347.938E-09
             546     174.193E-06    -347.660E-09
             547     174.192E-06    -463.733E-09
             548     173.754E-06    -348.374E-09
             549     173.899E-06    -348.136E-09
             550     173.898E-06    -464.328E-09
             551     173.468E-06    -348.746E-09
             552     173.610E-06    -348.541E-09
             553     173.610E-06    -464.843E-09
             554     173.188E-06    -349.065E-09
             555     173.327E-06    -348.888E-09
             556     173.327E-06    -465.286E-09
             557     172.913E-06    -349.338E-09
             558     173.050E-06    -349.185E-09
             559     173.050E-06    -465.667E-09
             560     172.644E-06    -349.575E-09
             561     172.778E-06    -349.441E-09
             562     172.778E-06    -465.997E-09
             563     172.379E-06    -349.781E-09
             564     172.511E-06    -349.663E-09
             565     172.511E-06    -466.284E-09
             566     172.120E-06    -349.964E-09
             567     172.249E-06    -349.857E-09
             568     172.249E-06    -466.536E-09
             569     171.866E-06    -350.127E-09
             570     171.992E-06    -350.031E-09
             571     171.992E-06    -466.761E-09
             572     171.617E-06    -350.274E-09
             573     171.741E-06    -350.187E-09
             574     171.741E-06    -466.964E-09
             575     171.372E-06    -350.405E-09
             576     171.494E-06    -350.328E-09
             577     171.494E-06    -467.147E-09
             578     171.132E-06    -350.512E-09
             579     171.252E-06    -350.450E-09
             580     171.251E-06    -467.306E-09
             581     170.897E-06    -350.574E-09
             582     171.014E-06    -350.538E-09
             583     171.014E-06    -467.428E-09
             584     176.238E-06    -580.779E-09
             585     176.404E-06    -583.808E-09
             586     176.400E-06    -700.377E-09
             587     176.573E-06    -588.278E-09
             588     175.909E-06    -577.098E-09
             589     176.072E-06    -578.308E-09
             590     176.069E-06    -695.296E-09
             591     175.584E-06    -576.384E-09
             592     175.746E-06    -576.487E-09
             593     175.742E-06    -693.128E-09
             594     175.265E-06    -576.861E-09
             595     175.424E-06    -576.535E-09
             596     175.421E-06    -692.847E-09
             597     174.951E-06    -577.688E-09
             598     175.107E-06    -577.238E-09
             599     175.105E-06    -693.397E-09
             600     174.643E-06    -578.567E-09
             601     174.796E-06    -578.106E-09
             602     174.795E-06    -694.237E-09
             603     174.341E-06    -579.397E-09
             604     174.491E-06    -578.966E-09
             605     174.490E-06    -695.134E-09
             606     174.044E-06    -580.144E-09
             607     174.191E-06    -579.757E-09
             608     174.191E-06    -695.994E-09
             609     173.753E-06    -580.804E-09
             610     173.898E-06    -580.462E-09
             611     173.897E-06    -696.778E-09
             612     173.468E-06    -581.378E-09
             613     173.610E-06    -581.079E-09
             614     173.609E-06    -697.474E-09
             615     173.188E-06    -581.876E-09
             616     173.327E-06    -581.616E-09
             617     173.327E-06    -698.085E-09
             618     172.913E-06    -582.307E-09
             619     173.050E-06    -582.080E-09
             620     173.049E-06    -698.617E-09
             621     172.644E-06    -582.682E-09
             622     172.778E-06    -582.483E-09
             623     172.777E-06    -699.080E-09
             624     172.379E-06    -583.010E-09
             625     172.511E-06    -582.835E-09
             626     172.511E-06    -699.486E-09
             627     172.120E-06    -583.302E-09
             628     172.249E-06    -583.145E-09
             629     172.249E-06    -699.845E-09
             630     171.866E-06    -583.565E-09
             631     171.992E-06    -583.422E-09
             632     171.992E-06    -700.167E-09
             633     171.617E-06    -583.802E-09
             634     171.741E-06    -583.672E-09
             635     171.741E-06    -700.459E-09
             636     171.372E-06    -584.014E-09
             637     171.494E-06    -583.898E-09
             638     171.494E-06    -700.724E-09
             639     171.132E-06    -584.194E-09
             640     171.252E-06    -584.096E-09
             641     171.252E-06    -700.960E-09
             642     170.897E-06    -584.325E-09
             643     171.014E-06    -584.255E-09
             644     171.014E-06    -701.155E-09
             645     176.231E-06    -814.120E-09
             646     176.397E-06    -816.386E-09
             647     176.395E-06    -932.543E-09
             648     176.566E-06    -819.319E-09
             649     175.902E-06    -810.744E-09
             650     176.065E-06    -812.025E-09
             651     176.063E-06    -928.702E-09
             652     175.579E-06    -809.409E-09
             653     175.739E-06    -809.812E-09
             654     175.737E-06    -926.530E-09
             655     175.261E-06    -809.385E-09
             656     175.419E-06    -809.262E-09
             657     175.417E-06    -925.843E-09
             658     174.948E-06    -809.997E-09
             659     175.103E-06    -809.625E-09
             660     175.102E-06    -926.083E-09
             661     174.641E-06    -810.858E-09
             662     174.793E-06    -810.394E-09
             663     174.792E-06    -926.791E-09
             664     174.339E-06    -811.774E-09
             665     174.489E-06    -811.298E-09
             666     174.488E-06    -927.686E-09
             667     174.043E-06    -812.657E-09
             668     174.190E-06    -812.204E-09
             669     174.189E-06    -928.618E-09
             670     173.752E-06    -813.465E-09
             671     173.897E-06    -813.053E-09
             672     173.896E-06    -929.509E-09
             673     173.467E-06    -814.187E-09
             674     173.609E-06    -813.819E-09
             675     173.608E-06    -930.325E-09
             676     173.187E-06    -814.822E-09
             677     173.326E-06    -814.498E-09
             678     173.326E-06    -931.054E-09
             679     172.913E-06    -815.378E-09
             680     173.049E-06    -815.094E-09
             681     173.049E-06    -931.697E-09
             682     172.644E-06    -815.866E-09
             683     172.777E-06    -815.615E-09
             684     172.777E-06    -932.263E-09
             685     172.379E-06    -816.296E-09
             686     172.511E-06    -816.073E-09
             687     172.511E-06    -932.762E-09
             688     172.120E-06    -816.681E-09
             689     172.249E-06    -816.480E-09
             690     172.249E-06    -933.207E-09
             691     171.866E-06    -817.030E-09
             692     171.992E-06    -816.846E-09
             693     171.992E-06    -933.610E-09
             694     171.617E-06    -817.349E-09
             695     171.741E-06    -817.180E-09
             696     171.741E-06    -933.979E-09
             697     171.372E-06    -817.639E-09
             698     171.494E-06    -817.485E-09
             699     171.494E-06    -934.321E-09
             700     171.133E-06    -817.894E-09
             701     171.252E-06    -817.759E-09
             702     171.252E-06    -934.632E-09
             703     170.898E-06    -818.102E-09
             704     171.014E-06    -817.993E-09
             705     171.014E-06    -934.906E-09
             706     176.226E-06    -1.04671E-06
             707     176.392E-06    -1.04835E-06
             708     176.391E-06    -1.16431E-06
             709     176.561E-06    -1.05038E-06
             710     175.897E-06    -1.04403E-06
             711     176.061E-06    -1.04510E-06
             712     176.059E-06    -1.16153E-06
             713     175.574E-06    -1.04269E-06
             714     175.735E-06    -1.04314E-06
             715     175.733E-06    -1.15977E-06
             716     175.257E-06    -1.04243E-06
             717     175.415E-06    -1.04241E-06
             718     175.413E-06    -1.15907E-06
             719     174.945E-06    -1.04285E-06
             720     175.100E-06    -1.04256E-06
             721     175.098E-06    -1.15918E-06
             722     174.638E-06    -1.04363E-06
             723     174.791E-06    -1.04320E-06
             724     174.789E-06    -1.15978E-06
             725     174.337E-06    -1.04456E-06
             726     174.487E-06    -1.04407E-06
             727     174.486E-06    -1.16064E-06
             728     174.041E-06    -1.04549E-06
             729     174.188E-06    -1.04501E-06
             730     174.188E-06    -1.16159E-06
             731     173.751E-06    -1.04639E-06
             732     173.896E-06    -1.04593E-06
             733     173.895E-06    -1.16253E-06
             734     173.466E-06    -1.04720E-06
             735     173.608E-06    -1.04679E-06
             736     173.608E-06    -1.16341E-06
             737     173.187E-06    -1.04793E-06
             738     173.326E-06    -1.04756E-06
             739     173.326E-06    -1.16421E-06
             740     172.913E-06    -1.04858E-06
             741     173.049E-06    -1.04825E-06
             742     173.049E-06    -1.16493E-06
             743     172.643E-06    -1.04915E-06
             744     172.777E-06    -1.04886E-06
             745     172.777E-06    -1.16556E-06
             746     172.379E-06    -1.04965E-06
             747     172.511E-06    -1.04939E-06
             748     172.511E-06    -1.16612E-06
             749     172.120E-06    -1.05011E-06
             750     172.249E-06    -1.04987E-06
             751     172.249E-06    -1.16663E-06
             752     171.866E-06    -1.05053E-06
             753     171.993E-06    -1.05031E-06
             754     171.993E-06    -1.16710E-06
             755     171.617E-06    -1.05092E-06
             756     171.741E-06    -1.05072E-06
             757     171.741E-06    -1.16753E-06
             758     171.372E-06    -1.05128E-06
             759     171.494E-06    -1.05109E-06
             760     171.494E-06    -1.16794E-06
             761     171.133E-06    -1.05162E-06
             762     171.252E-06    -1.05144E-06
             763     171.252E-06    -1.16832E-06
             764     170.898E-06    -1.05191E-06
             765     171.015E-06    -1.05176E-06
             766     171.015E-06    -1.16868E-06
             767     176.223E-06    -1.27887E-06
             768     176.389E-06    -1.28001E-06
             769     176.388E-06    -1.39586E-06
             770     176.558E-06    -1.28142E-06
             771     175.894E-06    -1.27694E-06
             772     176.057E-06    -1.27772E-06
             773     176.056E-06    -1.39398E-06
             774     175.571E-06    -1.27589E-06
             775     175.731E-06    -1.27624E-06
             776     175.730E-06    -1.39276E-06
             777     175.254E-06    -1.27566E-06
             778     175.411E-06    -1.27564E-06
             779     175.410E-06    -1.39229E-06
             780     174.942E-06    -1.27603E-06
             781     175.097E-06    -1.27576E-06
             782     175.096E-06    -1.39245E-06
             783     174.636E-06    -1.27677E-06
             784     174.788E-06    -1.27635E-06
             785     174.787E-06    -1.39305E-06
             786     174.336E-06    -1.27768E-06
             787     174.485E-06    -1.27719E-06
             788     174.484E-06    -1.39390E-06
             789     174.040E-06    -1.27863E-06
             790     174.187E-06    -1.27814E-06
             791     174.186E-06    -1.39485E-06
             792     173.750E-06    -1.27957E-06
             793     173.895E-06    -1.27909E-06
             794     173.894E-06    -1.39581E-06
             795     173.466E-06    -1.28043E-06
             796     173.607E-06    -1.27999E-06
             797     173.607E-06    -1.39672E-06
             798     173.187E-06    -1.28121E-06
             799     173.325E-06    -1.28082E-06
             800     173.325E-06    -1.39756E-06
             801     172.912E-06    -1.28191E-06
             802     173.049E-06    -1.28156E-06
             803     173.049E-06    -1.39831E-06
             804     172.643E-06    -1.28253E-06
             805     172.777E-06    -1.28221E-06
             806     172.777E-06    -1.39898E-06
             807     172.380E-06    -1.28309E-06
             808     172.511E-06    -1.28280E-06
             809     172.511E-06    -1.39958E-06
             810     172.121E-06    -1.28359E-06
             811     172.249E-06    -1.28333E-06
             812     172.249E-06    -1.40012E-06
             813     171.866E-06    -1.28407E-06
             814     171.993E-06    -1.28382E-06
             815     171.993E-06    -1.40063E-06
             816     171.617E-06    -1.28452E-06
             817     171.741E-06    -1.28428E-06
             818     171.741E-06    -1.40111E-06
             819     171.373E-06    -1.28495E-06
             820     171.494E-06    -1.28472E-06
             821     171.494E-06    -1.40158E-06
             822     171.133E-06    -1.28536E-06
             823     171.252E-06    -1.28514E-06
             824     171.252E-06    -1.40203E-06
             825     170.898E-06    -1.28574E-06
             826     171.015E-06    -1.28554E-06
             827     171.015E-06    -1.40247E-06
             828     176.220E-06    -1.51078E-06
             829     176.387E-06    -1.51149E-06
             830     176.386E-06    -1.62726E-06
             831     176.555E-06    -1.51243E-06
             832     175.891E-06    -1.50956E-06
             833     176.055E-06    -1.51002E-06
             834     176.054E-06    -1.62617E-06
             835     175.568E-06    -1.50895E-06
             836     175.729E-06    -1.50911E-06
             837     175.728E-06    -1.62554E-06
             838     175.252E-06    -1.50893E-06
             839     175.409E-06    -1.50882E-06
             840     175.408E-06    -1.62544E-06
             841     174.940E-06    -1.50938E-06
             842     175.095E-06    -1.50907E-06
             843     175.094E-06    -1.62579E-06
             844     174.635E-06    -1.51014E-06
             845     174.787E-06    -1.50971E-06
             846     174.786E-06    -1.62649E-06
             847     174.334E-06    -1.51106E-06
             848     174.484E-06    -1.51057E-06
             849     174.483E-06    -1.62738E-06
             850     174.039E-06    -1.51203E-06
             851     174.186E-06    -1.51153E-06
             852     174.186E-06    -1.62835E-06
             853     173.750E-06    -1.51297E-06
             854     173.894E-06    -1.51250E-06
             855     173.894E-06    -1.62932E-06
             856     173.466E-06    -1.51385E-06
             857     173.607E-06    -1.51341E-06
             858     173.607E-06    -1.63023E-06
             859     173.186E-06    -1.51465E-06
             860     173.325E-06    -1.51425E-06
             861     173.325E-06    -1.63107E-06
             862     172.912E-06    -1.51537E-06
             863     173.049E-06    -1.51501E-06
             864     173.049E-06    -1.63183E-06
             865     172.644E-06    -1.51601E-06
             866     172.777E-06    -1.51569E-06
             867     172.777E-06    -1.63250E-06
             868     172.380E-06    -1.51659E-06
             869     172.511E-06    -1.51630E-06
             870     172.511E-06    -1.63311E-06
             871     172.121E-06    -1.51713E-06
             872     172.250E-06    -1.51686E-06
             873     172.250E-06    -1.63367E-06
             874     171.867E-06    -1.51764E-06
             875     171.993E-06    -1.51738E-06
             876     171.993E-06    -1.63420E-06
             877     171.618E-06    -1.51813E-06
             878     171.741E-06    -1.51788E-06
             879     171.742E-06    -1.63472E-06
             880     171.373E-06    -1.51862E-06
             881     171.495E-06    -1.51837E-06
             882     171.495E-06    -1.63523E-06
             883     171.133E-06    -1.51911E-06
             884     171.253E-06    -1.51885E-06
             885     171.253E-06    -1.63575E-06
             886     170.898E-06    -1.51959E-06
             887     171.015E-06    -1.51934E-06
             888     171.015E-06    -1.63628E-06
             889     176.219E-06    -1.74250E-06
             890     176.385E-06    -1.74283E-06
             891     176.385E-06    -1.85854E-06
             892     176.554E-06    -1.74337E-06
             893     175.890E-06    -1.74196E-06
             894     176.053E-06    -1.74211E-06
             895     176.053E-06    -1.85817E-06
             896     175.567E-06    -1.74186E-06
             897     175.727E-06    -1.74179E-06
             898     175.727E-06    -1.85815E-06
             899     175.250E-06    -1.74217E-06
             900     175.408E-06    -1.74191E-06
             901     175.407E-06    -1.85849E-06
             902     174.939E-06    -1.74281E-06
             903     175.094E-06    -1.74242E-06
             904     175.093E-06    -1.85915E-06
             905     174.634E-06    -1.74367E-06
             906     174.785E-06    -1.74320E-06
             907     174.785E-06    -1.86002E-06
             908     174.333E-06    -1.74464E-06
             909     174.483E-06    -1.74413E-06
             910     174.482E-06    -1.86101E-06
             911     174.039E-06    -1.74563E-06
             912     174.185E-06    -1.74512E-06
             913     174.185E-06    -1.86202E-06
             914     173.750E-06    -1.74657E-06
             915     173.893E-06    -1.74610E-06
             916     173.893E-06    -1.86300E-06
             917     173.465E-06    -1.74745E-06
             918     173.607E-06    -1.74701E-06
             919     173.607E-06    -1.86391E-06
             920     173.187E-06    -1.74824E-06
             921     173.325E-06    -1.74785E-06
             922     173.325E-06    -1.86473E-06
             923     172.913E-06    -1.74895E-06
             924     173.049E-06    -1.74860E-06
             925     173.049E-06    -1.86546E-06
             926     172.644E-06    -1.74959E-06
             927     172.778E-06    -1.74927E-06
             928     172.778E-06    -1.86612E-06
             929     172.380E-06    -1.75017E-06
             930     172.511E-06    -1.74988E-06
             931     172.512E-06    -1.86672E-06
             932     172.121E-06    -1.75072E-06
             933     172.250E-06    -1.75044E-06
             934     172.250E-06    -1.86728E-06
             935     171.867E-06    -1.75124E-06
             936     171.994E-06    -1.75097E-06
             937     171.994E-06    -1.86781E-06
             938     171.618E-06    -1.75177E-06
             939     171.742E-06    -1.75150E-06
             940     171.742E-06    -1.86834E-06
             941     171.374E-06    -1.75231E-06
             942     171.495E-06    -1.75202E-06
             943     171.495E-06    -1.86889E-06
             944     171.134E-06    -1.75287E-06
             945     171.253E-06    -1.75257E-06
             946     171.253E-06    -1.86946E-06
             947     170.899E-06    -1.75345E-06
             948     171.016E-06    -1.75314E-06
             949     171.016E-06    -1.87008E-06
             950     176.218E-06    -1.97408E-06
             951     176.385E-06    -1.97406E-06
             952     176.385E-06    -2.08971E-06
             953     176.553E-06    -1.97425E-06
             954     175.889E-06    -1.97421E-06
             955     176.053E-06    -1.97404E-06
             956     176.053E-06    -2.09003E-06
             957     175.566E-06    -1.97465E-06
             958     175.727E-06    -1.97433E-06
             959     175.727E-06    -2.09064E-06
             960     175.249E-06    -1.97537E-06
             961     175.407E-06    -1.97493E-06
             962     175.407E-06    -2.09149E-06
             963     174.938E-06    -1.97629E-06
             964     175.093E-06    -1.97578E-06
             965     175.093E-06    -2.09252E-06
             966     174.633E-06    -1.97732E-06
             967     174.785E-06    -1.97677E-06
             968     174.785E-06    -2.09364E-06
             969     174.333E-06    -1.97837E-06
             970     174.482E-06    -1.97783E-06
             971     174.482E-06    -2.09476E-06
             972     174.039E-06    -1.97939E-06
             973     174.185E-06    -1.97887E-06
             974     174.185E-06    -2.09584E-06
             975     173.750E-06    -1.98033E-06
             976     173.893E-06    -1.97986E-06
             977     173.894E-06    -2.09683E-06
             978     173.466E-06    -1.98119E-06
             979     173.607E-06    -1.98076E-06
             980     173.607E-06    -2.09772E-06
             981     173.187E-06    -1.98195E-06
             982     173.326E-06    -1.98157E-06
             983     173.326E-06    -2.09851E-06
             984     172.913E-06    -1.98262E-06
             985     173.049E-06    -1.98229E-06
             986     173.050E-06    -2.09920E-06
             987     172.644E-06    -1.98323E-06
             988     172.778E-06    -1.98293E-06
             989     172.778E-06    -2.09982E-06
             990     172.381E-06    -1.98380E-06
             991     172.512E-06    -1.98351E-06
             992     172.512E-06    -2.10038E-06
             993     172.122E-06    -1.98433E-06
             994     172.251E-06    -1.98406E-06
             995     172.251E-06    -2.10091E-06
             996     171.868E-06    -1.98486E-06
             997     171.994E-06    -1.98459E-06
             998     171.995E-06    -2.10143E-06
             999     171.619E-06    -1.98541E-06
            1000     171.743E-06    -1.98512E-06
            1001     171.743E-06    -2.10197E-06
            1002     171.374E-06    -1.98599E-06
            1003     171.496E-06    -1.98568E-06
            1004     171.496E-06    -2.10254E-06
            1005     171.135E-06    -1.98662E-06
            1006     171.254E-06    -1.98628E-06
            1007     171.254E-06    -2.10316E-06
            1008     170.900E-06    -1.98731E-06
            1009     171.016E-06    -1.98694E-06
            1010     171.017E-06    -2.10386E-06
            1011     176.218E-06    -2.20553E-06
            1012     176.385E-06    -2.20517E-06
            1013     176.385E-06    -2.32076E-06
            1014     176.553E-06    -2.20503E-06
            1015     175.889E-06    -2.20634E-06
            1016     176.053E-06    -2.20583E-06
            1017     176.053E-06    -2.32178E-06
            1018     175.566E-06    -2.20738E-06
            1019     175.727E-06    -2.20677E-06
            1020     175.727E-06    -2.32305E-06
            1021     175.249E-06    -2.20857E-06
            1022     175.407E-06    -2.20791E-06
            1023     175.407E-06    -2.32447E-06
            1024     174.938E-06    -2.20982E-06
            1025     175.093E-06    -2.20915E-06
            1026     175.093E-06    -2.32592E-06
            1027     174.633E-06    -2.21105E-06
            1028     174.785E-06    -2.21042E-06
            1029     174.785E-06    -2.32732E-06
            1030     174.334E-06    -2.21222E-06
            1031     174.483E-06    -2.21163E-06
            1032     174.483E-06    -2.32862E-06
            1033     174.039E-06    -2.21328E-06
            1034     174.186E-06    -2.21275E-06
            1035     174.186E-06    -2.32977E-06
            1036     173.750E-06    -2.21421E-06
            1037     173.894E-06    -2.21375E-06
            1038     173.894E-06    -2.33077E-06
            1039     173.466E-06    -2.21503E-06
            1040     173.607E-06    -2.21463E-06
            1041     173.608E-06    -2.33163E-06
            1042     173.188E-06    -2.21574E-06
            1043     173.326E-06    -2.21540E-06
            1044     173.327E-06    -2.33236E-06
            1045     172.914E-06    -2.21637E-06
            1046     173.050E-06    -2.21606E-06
            1047     173.050E-06    -2.33300E-06
            1048     172.645E-06    -2.21693E-06
            1049     172.779E-06    -2.21665E-06
            1050     172.779E-06    -2.33356E-06
            1051     172.382E-06    -2.21746E-06
            1052     172.513E-06    -2.21719E-06
            1053     172.513E-06    -2.33407E-06
            1054     172.123E-06    -2.21797E-06
            1055     172.251E-06    -2.21771E-06
            1056     172.252E-06    -2.33456E-06
            1057     171.869E-06    -2.21849E-06
            1058     171.995E-06    -2.21822E-06
            1059     171.995E-06    -2.33506E-06
            1060     171.620E-06    -2.21904E-06
            1061     171.743E-06    -2.21875E-06
            1062     171.744E-06    -2.33559E-06
            1063     171.375E-06    -2.21965E-06
            1064     171.497E-06    -2.21933E-06
            1065     171.497E-06    -2.33617E-06
            1066     171.135E-06    -2.22034E-06
            1067     171.255E-06    -2.21997E-06
            1068     171.255E-06    -2.33683E-06
            1069     170.900E-06    -2.22113E-06
            1070     171.017E-06    -2.22070E-06
            1071     171.018E-06    -2.33760E-06
            1072     176.219E-06    -2.43687E-06
            1073     176.385E-06    -2.43615E-06
            1074     176.386E-06    -2.55167E-06
            1075     176.554E-06    -2.43567E-06
            1076     175.890E-06    -2.43839E-06
            1077     176.053E-06    -2.43753E-06
            1078     176.054E-06    -2.55343E-06
            1079     175.567E-06    -2.44007E-06
            1080     175.727E-06    -2.43916E-06
            1081     175.728E-06    -2.55543E-06
            1082     175.250E-06    -2.44178E-06
            1083     175.407E-06    -2.44088E-06
            1084     175.408E-06    -2.55746E-06
            1085     174.939E-06    -2.44341E-06
            1086     175.094E-06    -2.44258E-06
            1087     175.094E-06    -2.55939E-06
            1088     174.634E-06    -2.44488E-06
            1089     174.786E-06    -2.44415E-06
            1090     174.786E-06    -2.56110E-06
            1091     174.334E-06    -2.44617E-06
            1092     174.483E-06    -2.44554E-06
            1093     174.484E-06    -2.56257E-06
            1094     174.040E-06    -2.44726E-06
            1095     174.186E-06    -2.44673E-06
            1096     174.187E-06    -2.56379E-06
            1097     173.751E-06    -2.44818E-06
            1098     173.895E-06    -2.44774E-06
            1099     173.895E-06    -2.56479E-06
            1100     173.467E-06    -2.44895E-06
            1101     173.608E-06    -2.44858E-06
            1102     173.609E-06    -2.56560E-06
            1103     173.189E-06    -2.44959E-06
            1104     173.327E-06    -2.44928E-06
            1105     173.328E-06    -2.56626E-06
            1106     172.915E-06    -2.45015E-06
            1107     173.051E-06    -2.44988E-06
            1108     173.052E-06    -2.56682E-06
            1109     172.646E-06    -2.45066E-06
            1110     172.780E-06    -2.45041E-06
            1111     172.780E-06    -2.56731E-06
            1112     172.383E-06    -2.45113E-06
            1113     172.514E-06    -2.45089E-06
            1114     172.514E-06    -2.56776E-06
            1115     172.124E-06    -2.45160E-06
            1116     172.252E-06    -2.45136E-06
            1117     172.253E-06    -2.56820E-06
            1118     171.870E-06    -2.45210E-06
            1119     171.996E-06    -2.45184E-06
            1120     171.997E-06    -2.56867E-06
            1121     171.621E-06    -2.45265E-06
            1122     171.744E-06    -2.45236E-06
            1123     171.745E-06    -2.56918E-06
            1124     171.376E-06    -2.45328E-06
            1125     171.498E-06    -2.45294E-06
            1126     171.498E-06    -2.56977E-06
            1127     171.136E-06    -2.45402E-06
            1128     171.256E-06    -2.45362E-06
            1129     171.256E-06    -2.57046E-06
            1130     170.901E-06    -2.45490E-06
            1131     171.018E-06    -2.45442E-06
            1132     171.019E-06    -2.57129E-06
            1133     176.220E-06    -2.66809E-06
            1134     176.387E-06    -2.66697E-06
            1135     176.388E-06    -2.78240E-06
            1136     176.555E-06    -2.66614E-06
            1137     175.891E-06    -2.67039E-06
            1138     176.054E-06    -2.66913E-06
            1139     176.055E-06    -2.78500E-06
            1140     175.568E-06    -2.67279E-06
            1141     175.729E-06    -2.67153E-06
            1142     175.729E-06    -2.78782E-06
            1143     175.251E-06    -2.67507E-06
            1144     175.409E-06    -2.67391E-06
            1145     175.410E-06    -2.79054E-06
            1146     174.941E-06    -2.67710E-06
            1147     175.095E-06    -2.67609E-06
            1148     175.096E-06    -2.79296E-06
            1149     174.635E-06    -2.67881E-06
            1150     174.787E-06    -2.67798E-06
            1151     174.788E-06    -2.79499E-06
            1152     174.336E-06    -2.68020E-06
            1153     174.485E-06    -2.67954E-06
            1154     174.486E-06    -2.79661E-06
            1155     174.042E-06    -2.68132E-06
            1156     174.188E-06    -2.68079E-06
            1157     174.189E-06    -2.79788E-06
            1158     173.753E-06    -2.68220E-06
            1159     173.896E-06    -2.68178E-06
            1160     173.897E-06    -2.79884E-06
            1161     173.469E-06    -2.68290E-06
            1162     173.610E-06    -2.68257E-06
            1163     173.611E-06    -2.79959E-06
            1164     173.190E-06    -2.68346E-06
            1165     173.329E-06    -2.68319E-06
            1166     173.329E-06    -2.80017E-06
            1167     172.916E-06    -2.68394E-06
            1168     173.052E-06    -2.68371E-06
            1169     173.053E-06    -2.80064E-06
            1170     172.648E-06    -2.68437E-06
            1171     172.781E-06    -2.68416E-06
            1172     172.782E-06    -2.80104E-06
            1173     172.384E-06    -2.68478E-06
            1174     172.515E-06    -2.68457E-06
            1175     172.516E-06    -2.80142E-06
            1176     172.125E-06    -2.68521E-06
            1177     172.254E-06    -2.68499E-06
            1178     172.254E-06    -2.80181E-06
            1179     171.871E-06    -2.68569E-06
            1180     171.997E-06    -2.68543E-06
            1181     171.998E-06    -2.80224E-06
            1182     171.622E-06    -2.68623E-06
            1183     171.746E-06    -2.68594E-06
            1184     171.746E-06    -2.80273E-06
            1185     171.377E-06    -2.68687E-06
            1186     171.499E-06    -2.68652E-06
            1187     171.499E-06    -2.80332E-06
            1188     171.137E-06    -2.68764E-06
            1189     171.257E-06    -2.68722E-06
            1190     171.257E-06    -2.80403E-06
            1191     170.902E-06    -2.68860E-06
            1192     171.019E-06    -2.68808E-06
            1193     171.020E-06    -2.80490E-06
            1194     176.222E-06    -2.89916E-06
            1195     176.389E-06    -2.89759E-06
            1196     176.390E-06    -3.01290E-06
            1197     176.558E-06    -2.89636E-06
            1198     175.893E-06    -2.90238E-06
            1199     176.056E-06    -2.90066E-06
            1200     176.058E-06    -3.01651E-06
            1201     175.570E-06    -2.90559E-06
            1202     175.730E-06    -2.90394E-06
            1203     175.732E-06    -3.02029E-06
            1204     175.253E-06    -2.90849E-06
            1205     175.411E-06    -2.90705E-06
            1206     175.412E-06    -3.02377E-06
            1207     174.943E-06    -2.91091E-06
            1208     175.097E-06    -2.90974E-06
            1209     175.099E-06    -3.02670E-06
            1210     174.638E-06    -2.91284E-06
            1211     174.789E-06    -2.91193E-06
            1212     174.791E-06    -3.02900E-06
            1213     174.338E-06    -2.91431E-06
            1214     174.487E-06    -2.91362E-06
            1215     174.488E-06    -3.03073E-06
            1216     174.044E-06    -2.91541E-06
            1217     174.190E-06    -2.91490E-06
            1218     174.191E-06    -3.03199E-06
            1219     173.754E-06    -2.91622E-06
            1220     173.898E-06    -2.91585E-06
            1221     173.899E-06    -3.03290E-06
            1222     173.471E-06    -2.91683E-06
            1223     173.612E-06    -2.91655E-06
            1224     173.613E-06    -3.03355E-06
            1225     173.192E-06    -2.91730E-06
            1226     173.330E-06    -2.91708E-06
            1227     173.331E-06    -3.03402E-06
            1228     172.918E-06    -2.91769E-06
            1229     173.054E-06    -2.91751E-06
            1230     173.055E-06    -3.03440E-06
            1231     172.649E-06    -2.91804E-06
            1232     172.783E-06    -2.91787E-06
            1233     172.784E-06    -3.03472E-06
            1234     172.385E-06    -2.91840E-06
            1235     172.516E-06    -2.91821E-06
            1236     172.517E-06    -3.03503E-06
            1237     172.126E-06    -2.91878E-06
            1238     172.255E-06    -2.91857E-06
            1239     172.256E-06    -3.03537E-06
            1240     171.872E-06    -2.91922E-06
            1241     171.999E-06    -2.91898E-06
            1242     171.999E-06    -3.03576E-06
            1243     171.623E-06    -2.91975E-06
            1244     171.747E-06    -2.91946E-06
            1245     171.747E-06    -3.03623E-06
            1246     171.378E-06    -2.92039E-06
            1247     171.500E-06    -2.92004E-06
            1248     171.501E-06    -3.03680E-06
            1249     171.139E-06    -2.92119E-06
            1250     171.258E-06    -2.92076E-06
            1251     171.258E-06    -3.03752E-06
            1252     170.903E-06    -2.92220E-06
            1253     171.020E-06    -2.92165E-06
            1254     171.021E-06    -3.03843E-06
            1255     176.225E-06    -3.13009E-06
            1256     176.392E-06    -3.12794E-06
            1257     176.393E-06    -3.24311E-06
            1258     176.560E-06    -3.12624E-06
            1259     175.896E-06    -3.13441E-06
            1260     176.059E-06    -3.13213E-06
            1261     176.061E-06    -3.24799E-06
            1262     175.573E-06    -3.13855E-06
            1263     175.733E-06    -3.13647E-06
            1264     175.735E-06    -3.25293E-06
            1265     175.256E-06    -3.14209E-06
            1266     175.414E-06    -3.14038E-06
            1267     175.416E-06    -3.25723E-06
            1268     174.946E-06    -3.14488E-06
            1269     175.100E-06    -3.14357E-06
            1270     175.102E-06    -3.26062E-06
            1271     174.640E-06    -3.14696E-06
            1272     174.792E-06    -3.14600E-06
            1273     174.794E-06    -3.26312E-06
            1274     174.341E-06    -3.14845E-06
            1275     174.490E-06    -3.14778E-06
            1276     174.491E-06    -3.26488E-06
            1277     174.046E-06    -3.14948E-06
            1278     174.193E-06    -3.14902E-06
            1279     174.194E-06    -3.26608E-06
            1280     173.757E-06    -3.15020E-06
            1281     173.901E-06    -3.14988E-06
            1282     173.902E-06    -3.26688E-06
            1283     173.473E-06    -3.15070E-06
            1284     173.614E-06    -3.15048E-06
            1285     173.615E-06    -3.26742E-06
            1286     173.194E-06    -3.15107E-06
            1287     173.332E-06    -3.15090E-06
            1288     173.333E-06    -3.26779E-06
            1289     172.920E-06    -3.15137E-06
            1290     173.056E-06    -3.15122E-06
            1291     173.057E-06    -3.26806E-06
            1292     172.651E-06    -3.15164E-06
            1293     172.784E-06    -3.15150E-06
            1294     172.785E-06    -3.26830E-06
            1295     172.387E-06    -3.15193E-06
            1296     172.518E-06    -3.15178E-06
            1297     172.519E-06    -3.26855E-06
            1298     172.128E-06    -3.15227E-06
            1299     172.256E-06    -3.15209E-06
            1300     172.257E-06    -3.26884E-06
            1301     171.874E-06    -3.15269E-06
            1302     172.000E-06    -3.15246E-06
            1303     172.001E-06    -3.26920E-06
            1304     171.624E-06    -3.15320E-06
            1305     171.748E-06    -3.15292E-06
            1306     171.749E-06    -3.26965E-06
            1307     171.380E-06    -3.15385E-06
            1308     171.501E-06    -3.15349E-06
            1309     171.502E-06    -3.27022E-06
            1310     171.140E-06    -3.15466E-06
            1311     171.259E-06    -3.15422E-06
            1312     171.260E-06    -3.27094E-06
            1313     170.905E-06    -3.15569E-06
            1314     171.022E-06    -3.15513E-06
            1315     171.022E-06    -3.27185E-06
            1316     176.228E-06    -3.36084E-06
            1317     176.395E-06    -3.35794E-06
            1318     176.398E-06    -3.47292E-06
            1319     176.564E-06    -3.35564E-06
            1320     175.899E-06    -3.36657E-06
            1321     176.063E-06    -3.36360E-06
            1322     176.065E-06    -3.47952E-06
            1323     175.577E-06    -3.37177E-06
            1324     175.737E-06    -3.36922E-06
            1325     175.740E-06    -3.48586E-06
            1326     175.260E-06    -3.37593E-06
            1327     175.418E-06    -3.37398E-06
            1328     175.420E-06    -3.49099E-06
            1329     174.949E-06    -3.37900E-06
            1330     175.104E-06    -3.37761E-06
            1331     175.106E-06    -3.49474E-06
            1332     174.644E-06    -3.38113E-06
            1333     174.796E-06    -3.38018E-06
            1334     174.798E-06    -3.49731E-06
            1335     174.344E-06    -3.38255E-06
            1336     174.493E-06    -3.38193E-06
            1337     174.495E-06    -3.49899E-06
            1338     174.049E-06    -3.38347E-06
            1339     174.196E-06    -3.38308E-06
            1340     174.198E-06    -3.50006E-06
            1341     173.760E-06    -3.38407E-06
            1342     173.904E-06    -3.38381E-06
            1343     173.905E-06    -3.50072E-06
            1344     173.475E-06    -3.38445E-06
            1345     173.617E-06    -3.38428E-06
            1346     173.618E-06    -3.50113E-06
            1347     173.196E-06    -3.38471E-06
            1348     173.335E-06    -3.38459E-06
            1349     173.336E-06    -3.50139E-06
            1350     172.922E-06    -3.38493E-06
            1351     173.058E-06    -3.38482E-06
            1352     173.059E-06    -3.50158E-06
            1353     172.652E-06    -3.38513E-06
            1354     172.786E-06    -3.38502E-06
            1355     172.787E-06    -3.50175E-06
            1356     172.388E-06    -3.38538E-06
            1357     172.520E-06    -3.38524E-06
            1358     172.520E-06    -3.50195E-06
            1359     172.129E-06    -3.38568E-06
            1360     172.258E-06    -3.38551E-06
            1361     172.259E-06    -3.50221E-06
            1362     171.875E-06    -3.38608E-06
            1363     172.001E-06    -3.38586E-06
            1364     172.002E-06    -3.50255E-06
            1365     171.626E-06    -3.38658E-06
            1366     171.750E-06    -3.38630E-06
            1367     171.750E-06    -3.50299E-06
            1368     171.381E-06    -3.38722E-06
            1369     171.502E-06    -3.38687E-06
            1370     171.503E-06    -3.50356E-06
            1371     171.141E-06    -3.38803E-06
            1372     171.260E-06    -3.38759E-06
            1373     171.261E-06    -3.50427E-06
            1374     170.906E-06    -3.38906E-06
            1375     171.023E-06    -3.38850E-06
            1376     171.023E-06    -3.50517E-06
            1377     176.234E-06    -3.59144E-06
            1378     176.400E-06    -3.58745E-06
            1379     176.404E-06    -3.70218E-06
            1380     176.570E-06    -3.58432E-06
            1381     175.905E-06    -3.59901E-06
            1382     176.068E-06    -3.59516E-06
            1383     176.071E-06    -3.71128E-06
            1384     175.582E-06    -3.60538E-06
            1385     175.742E-06    -3.60236E-06
            1386     175.746E-06    -3.71928E-06
            1387     175.266E-06    -3.61004E-06
            1388     175.423E-06    -3.60794E-06
            1389     175.426E-06    -3.72511E-06
            1390     174.954E-06    -3.61320E-06
            1391     175.109E-06    -3.61183E-06
            1392     175.112E-06    -3.72897E-06
            1393     174.649E-06    -3.61524E-06
            1394     174.801E-06    -3.61437E-06
            1395     174.803E-06    -3.73142E-06
            1396     174.348E-06    -3.61651E-06
            1397     174.498E-06    -3.61598E-06
            1398     174.500E-06    -3.73291E-06
            1399     174.053E-06    -3.61728E-06
            1400     174.200E-06    -3.61697E-06
            1401     174.201E-06    -3.73381E-06
            1402     173.763E-06    -3.61774E-06
            1403     173.907E-06    -3.61755E-06
            1404     173.908E-06    -3.73432E-06
            1405     173.478E-06    -3.61801E-06
            1406     173.619E-06    -3.61789E-06
            1407     173.621E-06    -3.73462E-06
            1408     173.198E-06    -3.61818E-06
            1409     173.337E-06    -3.61810E-06
            1410     173.338E-06    -3.73479E-06
            1411     172.924E-06    -3.61833E-06
            1412     173.060E-06    -3.61825E-06
            1413     173.061E-06    -3.73492E-06
            1414     172.654E-06    -3.61849E-06
            1415     172.788E-06    -3.61840E-06
            1416     172.789E-06    -3.73505E-06
            1417     172.390E-06    -3.61870E-06
            1418     172.521E-06    -3.61858E-06
            1419     172.522E-06    -3.73522E-06
            1420     172.131E-06    -3.61899E-06
            1421     172.260E-06    -3.61882E-06
            1422     172.260E-06    -3.73546E-06
            1423     171.876E-06    -3.61937E-06
            1424     172.003E-06    -3.61916E-06
            1425     172.003E-06    -3.73580E-06
            1426     171.627E-06    -3.61988E-06
            1427     171.751E-06    -3.61960E-06
            1428     171.751E-06    -3.73624E-06
            1429     171.382E-06    -3.62052E-06
            1430     171.504E-06    -3.62017E-06
            1431     171.504E-06    -3.73681E-06
            1432     171.142E-06    -3.62132E-06
            1433     171.261E-06    -3.62088E-06
            1434     171.262E-06    -3.73752E-06
            1435     170.907E-06    -3.62232E-06
            1436     171.024E-06    -3.62178E-06
            1437     171.024E-06    -3.73840E-06
            1438     176.240E-06    -3.82197E-06
            1439     176.407E-06    -3.81629E-06
            1440     176.412E-06    -3.93077E-06
            1441     176.577E-06    -3.81186E-06
            1442     175.912E-06    -3.83200E-06
            1443     176.075E-06    -3.82710E-06
            1444     176.080E-06    -3.94366E-06
            1445     175.589E-06    -3.83945E-06
            1446     175.750E-06    -3.83611E-06
            1447     175.754E-06    -3.95334E-06
            1448     175.272E-06    -3.84431E-06
            1449     175.430E-06    -3.84224E-06
            1450     175.434E-06    -3.95942E-06
            1451     174.960E-06    -3.84731E-06
            1452     175.116E-06    -3.84607E-06
            1453     175.119E-06    -3.96305E-06
            1454     174.654E-06    -3.84912E-06
            1455     174.806E-06    -3.84838E-06
            1456     174.809E-06    -3.96520E-06
            1457     174.352E-06    -3.85018E-06
            1458     174.502E-06    -3.84975E-06
            1459     174.505E-06    -3.96646E-06
            1460     174.056E-06    -3.85079E-06
            1461     174.204E-06    -3.85055E-06
            1462     174.205E-06    -3.96718E-06
            1463     173.766E-06    -3.85113E-06
            1464     173.910E-06    -3.85099E-06
            1465     173.912E-06    -3.96759E-06
            1466     173.480E-06    -3.85132E-06
            1467     173.622E-06    -3.85124E-06
            1468     173.623E-06    -3.96781E-06
            1469     173.200E-06    -3.85144E-06
            1470     173.340E-06    -3.85138E-06
            1471     173.341E-06    -3.96795E-06
            1472     172.926E-06    -3.85155E-06
            1473     173.062E-06    -3.85149E-06
            1474     173.063E-06    -3.96805E-06
            1475     172.656E-06    -3.85170E-06
            1476     172.790E-06    -3.85161E-06
            1477     172.791E-06    -3.96818E-06
            1478     172.392E-06    -3.85190E-06
            1479     172.523E-06    -3.85178E-06
            1480     172.524E-06    -3.96835E-06
            1481     172.132E-06    -3.85219E-06
            1482     172.261E-06    -3.85202E-06
            1483     172.262E-06    -3.96860E-06
            1484     171.878E-06    -3.85258E-06
            1485     172.004E-06    -3.85236E-06
            1486     172.005E-06    -3.96895E-06
            1487     171.628E-06    -3.85309E-06
            1488     171.752E-06    -3.85281E-06
            1489     171.753E-06    -3.96941E-06
            1490     171.383E-06    -3.85373E-06
            1491     171.505E-06    -3.85338E-06
            1492     171.505E-06    -3.96999E-06
            1493     171.143E-06    -3.85452E-06
            1494     171.263E-06    -3.85410E-06
            1495     171.263E-06    -3.97070E-06
            1496     170.908E-06    -3.85547E-06
            1497     171.025E-06    -3.85496E-06
            1498     171.025E-06    -3.97154E-06
            1499     176.251E-06    -4.05283E-06
            1500     176.417E-06    -4.04430E-06
            1501     176.425E-06    -4.15887E-06
            1502     176.587E-06    -4.03746E-06
            1503     175.922E-06    -4.06586E-06
            1504     176.085E-06    -4.05999E-06
            1505     176.093E-06    -4.17730E-06
            1506     175.599E-06    -4.07384E-06
            1507     175.760E-06    -4.07055E-06
            1508     175.766E-06    -4.18777E-06
            1509     175.281E-06    -4.07837E-06
            1510     175.439E-06    -4.07655E-06
            1511     175.444E-06    -4.19335E-06
            1512     174.967E-06    -4.08098E-06
            1513     175.123E-06    -4.07993E-06
            1514     175.127E-06    -4.19648E-06
            1515     174.659E-06    -4.08250E-06
            1516     174.812E-06    -4.08188E-06
            1517     174.815E-06    -4.19831E-06
            1518     174.357E-06    -4.08338E-06
            1519     174.507E-06    -4.08302E-06
            1520     174.509E-06    -4.19941E-06
            1521     174.060E-06    -4.08389E-06
            1522     174.208E-06    -4.08368E-06
            1523     174.209E-06    -4.20007E-06
            1524     173.769E-06    -4.08418E-06
            1525     173.913E-06    -4.08406E-06
            1526     173.915E-06    -4.20046E-06
            1527     173.483E-06    -4.08435E-06
            1528     173.625E-06    -4.08427E-06
            1529     173.626E-06    -4.20069E-06
            1530     173.202E-06    -4.08447E-06
            1531     173.342E-06    -4.08441E-06
            1532     173.343E-06    -4.20085E-06
            1533     172.927E-06    -4.08459E-06
            1534     173.064E-06    -4.08452E-06
            1535     173.065E-06    -4.20099E-06
            1536     172.658E-06    -4.08475E-06
            1537     172.792E-06    -4.08465E-06
            1538     172.792E-06    -4.20114E-06
            1539     172.393E-06    -4.08497E-06
            1540     172.524E-06    -4.08484E-06
            1541     172.525E-06    -4.20135E-06
            1542     172.133E-06    -4.08528E-06
            1543     172.262E-06    -4.08510E-06
            1544     172.263E-06    -4.20163E-06
            1545     171.879E-06    -4.08569E-06
            1546     172.005E-06    -4.08546E-06
            1547     172.006E-06    -4.20201E-06
            1548     171.629E-06    -4.08623E-06
            1549     171.753E-06    -4.08593E-06
            1550     171.754E-06    -4.20250E-06
            1551     171.384E-06    -4.08688E-06
            1552     171.506E-06    -4.08653E-06
            1553     171.506E-06    -4.20310E-06
            1554     171.144E-06    -4.08765E-06
            1555     171.264E-06    -4.08724E-06
            1556     171.264E-06    -4.20382E-06
            1557     170.909E-06    -4.08853E-06
            1558     171.026E-06    -4.08807E-06
            1559     171.026E-06    -4.20463E-06
            1560     176.268E-06    -4.28514E-06
            1561     176.434E-06    -4.27203E-06
            1562     176.450E-06    -4.38885E-06
            1563     176.605E-06    -4.25922E-06
            1564     175.938E-06    -4.30037E-06
            1565     176.103E-06    -4.29455E-06
            1566     176.114E-06    -4.41157E-06
            1567     175.611E-06    -4.30762E-06
            1568     175.774E-06    -4.30491E-06
            1569     175.782E-06    -4.42095E-06
            1570     175.290E-06    -4.31147E-06
            1571     175.450E-06    -4.30995E-06
            1572     175.455E-06    -4.42577E-06
            1573     174.974E-06    -4.31373E-06
            1574     175.131E-06    -4.31280E-06
            1575     175.135E-06    -4.42865E-06
            1576     174.664E-06    -4.31512E-06
            1577     174.818E-06    -4.31453E-06
            1578     174.821E-06    -4.43048E-06
            1579     174.361E-06    -4.31599E-06
            1580     174.512E-06    -4.31561E-06
            1581     174.513E-06    -4.43166E-06
            1582     174.063E-06    -4.31653E-06
            1583     174.211E-06    -4.31629E-06
            1584     174.212E-06    -4.43243E-06
            1585     173.771E-06    -4.31688E-06
            1586     173.916E-06    -4.31672E-06
            1587     173.917E-06    -4.43294E-06
            1588     173.485E-06    -4.31711E-06
            1589     173.627E-06    -4.31699E-06
            1590     173.628E-06    -4.43328E-06
            1591     173.204E-06    -4.31728E-06
            1592     173.344E-06    -4.31719E-06
            1593     173.344E-06    -4.43353E-06
            1594     172.929E-06    -4.31746E-06
            1595     173.066E-06    -4.31736E-06
            1596     173.066E-06    -4.43375E-06
            1597     172.659E-06    -4.31767E-06
            1598     172.793E-06    -4.31754E-06
            1599     172.793E-06    -4.43398E-06
            1600     172.394E-06    -4.31793E-06
            1601     172.526E-06    -4.31778E-06
            1602     172.526E-06    -4.43425E-06
            1603     172.134E-06    -4.31828E-06
            1604     172.263E-06    -4.31808E-06
            1605     172.264E-06    -4.43458E-06
            1606     171.880E-06    -4.31874E-06
            1607     172.006E-06    -4.31848E-06
            1608     172.007E-06    -4.43501E-06
            1609     171.630E-06    -4.31930E-06
            1610     171.754E-06    -4.31899E-06
            1611     171.755E-06    -4.43553E-06
            1612     171.385E-06    -4.31997E-06
            1613     171.507E-06    -4.31961E-06
            1614     171.507E-06    -4.43617E-06
            1615     171.145E-06    -4.32073E-06
            1616     171.265E-06    -4.32034E-06
            1617     171.265E-06    -4.43690E-06
            1618     170.910E-06    -4.32154E-06
            1619     171.027E-06    -4.32113E-06
            1620     171.027E-06    -4.43768E-06
            1621     176.300E-06    -4.51839E-06
            1622     176.475E-06    -4.50393E-06
            1623     176.507E-06    -4.61426E-06
            1624     176.641E-06    -4.46913E-06
            1625     175.958E-06    -4.53256E-06
            1626     176.130E-06    -4.52805E-06
            1627     176.139E-06    -4.64045E-06
            1628     175.624E-06    -4.53897E-06
            1629     175.790E-06    -4.53638E-06
            1630     175.795E-06    -4.65046E-06
            1631     175.298E-06    -4.54281E-06
            1632     175.460E-06    -4.54114E-06
            1633     175.463E-06    -4.65598E-06
            1634     174.980E-06    -4.54528E-06
            1635     175.138E-06    -4.54418E-06
            1636     175.139E-06    -4.65947E-06
            1637     174.668E-06    -4.54692E-06
            1638     174.823E-06    -4.54618E-06
            1639     174.824E-06    -4.66178E-06
            1640     174.364E-06    -4.54802E-06
            1641     174.515E-06    -4.54751E-06
            1642     174.516E-06    -4.66333E-06
            1643     174.065E-06    -4.54876E-06
            1644     174.213E-06    -4.54841E-06
            1645     174.214E-06    -4.66439E-06
            1646     173.773E-06    -4.54927E-06
            1647     173.918E-06    -4.54902E-06
            1648     173.918E-06    -4.66513E-06
            1649     173.486E-06    -4.54964E-06
            1650     173.629E-06    -4.54945E-06
            1651     173.629E-06    -4.66566E-06
            1652     173.205E-06    -4.54993E-06
            1653     173.345E-06    -4.54978E-06
            1654     173.345E-06    -4.66607E-06
            1655     172.930E-06    -4.55021E-06
            1656     173.067E-06    -4.55006E-06
            1657     173.067E-06    -4.66642E-06
            1658     172.660E-06    -4.55050E-06
            1659     172.794E-06    -4.55033E-06
            1660     172.794E-06    -4.66675E-06
            1661     172.395E-06    -4.55083E-06
            1662     172.526E-06    -4.55064E-06
            1663     172.527E-06    -4.66710E-06
            1664     172.135E-06    -4.55124E-06
            1665     172.264E-06    -4.55101E-06
            1666     172.264E-06    -4.66751E-06
            1667     171.881E-06    -4.55174E-06
            1668     172.007E-06    -4.55146E-06
            1669     172.007E-06    -4.66798E-06
            1670     171.631E-06    -4.55233E-06
            1671     171.755E-06    -4.55201E-06
            1672     171.755E-06    -4.66855E-06
            1673     171.386E-06    -4.55303E-06
            1674     171.508E-06    -4.55266E-06
            1675     171.508E-06    -4.66921E-06
            1676     171.146E-06    -4.55380E-06
            1677     171.265E-06    -4.55340E-06
            1678     171.266E-06    -4.66995E-06
            1679     170.911E-06    -4.55452E-06
            1680     171.028E-06    -4.55418E-06
            1681     171.028E-06    -4.67072E-06


  Minimum            170.897E-06    -4.67101E-06
         At Node              42             441

  Maximum            176.724E-06     148.378E-39
         At Node             421               2

           Total     291.762E-03    -3.91759E-03


